
     Program PWSCF v.7.5 starts on 26Sep2026 at  3:58:44 
        Git branch: HEAD
        Last git commit: 770a0b2d12928a67048e2f3da8d10d057e52179e
        Last git commit date: Tue Aug 19 09:57:12 2025 +0000
        Last git commit subject: Merge branch 'QE-7.5-RC' into 'master'

     This program is part of the open-source Quantum ESPRESSO suite
     for quantum simulation of materials; please cite
         "P. Giannozzi et al., J. Phys.:Condens. Matter 21 395502 (2009);
         "P. Giannozzi et al., J. Phys.:Condens. Matter 29 465901 (2017);
         "P. Giannozzi et al., J. Chem. Phys. 152 154105 (2020);
          URL http://www.quantum-espresso.org", 
     in publications or presentations arising from this work. More details at
     http://www.quantum-espresso.org/quote

     Parallel version (MPI), running on     1 processors

     MPI processes distributed on     1 nodes
     0 MiB available memory on the printing compute node when the environment starts

     Reading input from pw.in

     Current dimensions of program PWSCF are:
     Max number of different atomic species (ntypx) = 10
     Max number of k-points (npk) =  40000
     Max angular momentum in pseudopotentials (lmaxx) =  4
     Message from routine volume:
     axis vectors are left-handed
     Message from routine setup:
     using ibrav=0 with symmetry is DISCOURAGED, use correct ibrav instead

     Subspace diagonalization in iterative solution of the eigenvalue problem:
     a serial algorithm will be used


     G-vector sticks info
     --------------------
     sticks:   dense  smooth     PW     G-vecs:    dense   smooth      PW
     Sum         859     433    151                16889     5985    1139

     Using Slab Decomposition



     bravais-lattice index     =            0
     lattice parameter (alat)  =       7.2558  a.u.
     unit-cell volume          =     270.1072 (a.u.)^3
     number of atoms/cell      =            2
     number of atomic types    =            1
     number of electrons       =         8.00
     number of Kohn-Sham states=            4
     kinetic-energy cutoff     =      30.0000  Ry
     charge density cutoff     =     240.0000  Ry
     scf convergence threshold =      1.0E-06
     mixing beta               =       0.7000
     number of iterations used =            8  plain     mixing
     Exchange-correlation= PBE
                           (   1   4   3   4   0   0   0)

     celldm(1)=   7.255773  celldm(2)=   0.000000  celldm(3)=   0.000000
     celldm(4)=   0.000000  celldm(5)=   0.000000  celldm(6)=   0.000000

     crystal axes: (cart. coord. in units of alat)
               a(1) = (   0.707107   0.707107   0.000000 )  
               a(2) = (   0.707107   0.000000   0.707107 )  
               a(3) = (   0.000000   0.707107   0.707107 )  

     reciprocal axes: (cart. coord. in units 2 pi/alat)
               b(1) = (  0.707107  0.707107 -0.707107 )  
               b(2) = (  0.707107 -0.707107  0.707107 )  
               b(3) = ( -0.707107  0.707107  0.707107 )  


     PseudoPot. # 1 for Si read from file:
     ./Si.pbe-n-rrkjus_psl.1.0.0.UPF
     MD5 check sum: 0b0bb1205258b0d07b9f9672cf965d36
     Pseudo is Ultrasoft + core correction, Zval =  4.0
     Generated using "atomic" code by A. Dal Corso  v.5.1
     Using radial grid of 1141 points,  6 beta functions with: 
                l(1) =   0
                l(2) =   0
                l(3) =   1
                l(4) =   1
                l(5) =   2
                l(6) =   2
     Q(r) pseudized with 0 coefficients 


     atomic species   valence    mass     pseudopotential
     Si                4.00    28.08600     Si( 1.00)

     48 Sym. Ops., with inversion, found (24 have fractional translation)



   Cartesian axes

     site n.     atom                  positions (alat units)
         1        Si     tau(   1) = (   0.0000000   0.0000000   0.0000000  )
         2        Si     tau(   2) = (   0.3535534   0.3535534   0.3535534  )

     number of k points=    72
                       cart. coord. in units 2pi/alat
        k(    1) = (   0.0000000   0.0000000   0.0000000), wk =   0.0011574
        k(    2) = (  -0.0589256   0.0589256   0.0589256), wk =   0.0092593
        k(    3) = (  -0.1178511   0.1178511   0.1178511), wk =   0.0092593
        k(    4) = (  -0.1767767   0.1767767   0.1767767), wk =   0.0092593
        k(    5) = (  -0.2357023   0.2357023   0.2357023), wk =   0.0092593
        k(    6) = (  -0.2946278   0.2946278   0.2946278), wk =   0.0092593
        k(    7) = (   0.3535534  -0.3535534  -0.3535534), wk =   0.0046296
        k(    8) = (  -0.0000000   0.0000000   0.1178511), wk =   0.0069444
        k(    9) = (  -0.0589256   0.0589256   0.1767767), wk =   0.0277778
        k(   10) = (  -0.1178511   0.1178511   0.2357023), wk =   0.0277778
        k(   11) = (  -0.1767767   0.1767767   0.2946278), wk =   0.0277778
        k(   12) = (  -0.2357023   0.2357023   0.3535534), wk =   0.0277778
        k(   13) = (   0.4124790  -0.4124790  -0.2946278), wk =   0.0277778
        k(   14) = (   0.3535534  -0.3535534  -0.2357023), wk =   0.0277778
        k(   15) = (   0.2946278  -0.2946278  -0.1767767), wk =   0.0277778
        k(   16) = (   0.2357023  -0.2357023  -0.1178511), wk =   0.0277778
        k(   17) = (   0.1767767  -0.1767767  -0.0589256), wk =   0.0277778
        k(   18) = (   0.1178511  -0.1178511  -0.0000000), wk =   0.0138889
        k(   19) = (  -0.0000000   0.0000000   0.2357023), wk =   0.0069444
        k(   20) = (  -0.0589256   0.0589256   0.2946278), wk =   0.0277778
        k(   21) = (  -0.1178511   0.1178511   0.3535534), wk =   0.0277778
        k(   22) = (  -0.1767767   0.1767767   0.4124790), wk =   0.0277778
        k(   23) = (   0.4714045  -0.4714045  -0.2357023), wk =   0.0277778
        k(   24) = (   0.4124790  -0.4124790  -0.1767767), wk =   0.0277778
        k(   25) = (   0.3535534  -0.3535534  -0.1178511), wk =   0.0277778
        k(   26) = (   0.2946278  -0.2946278  -0.0589256), wk =   0.0277778
        k(   27) = (   0.2357023  -0.2357023   0.0000000), wk =   0.0138889
        k(   28) = (   0.0000000   0.0000000   0.3535534), wk =   0.0069444
        k(   29) = (  -0.0589256   0.0589256   0.4124790), wk =   0.0277778
        k(   30) = (  -0.1178511   0.1178511   0.4714045), wk =   0.0277778
        k(   31) = (   0.5303301  -0.5303301  -0.1767767), wk =   0.0277778
        k(   32) = (   0.4714045  -0.4714045  -0.1178511), wk =   0.0277778
        k(   33) = (   0.4124790  -0.4124790  -0.0589256), wk =   0.0277778
        k(   34) = (   0.3535534  -0.3535534   0.0000000), wk =   0.0138889
        k(   35) = (  -0.0000000   0.0000000   0.4714045), wk =   0.0069444
        k(   36) = (  -0.0589256   0.0589256   0.5303301), wk =   0.0277778
        k(   37) = (   0.5892557  -0.5892557  -0.1178511), wk =   0.0277778
        k(   38) = (   0.5303301  -0.5303301  -0.0589256), wk =   0.0277778
        k(   39) = (   0.4714045  -0.4714045  -0.0000000), wk =   0.0138889
        k(   40) = (  -0.0000000   0.0000000   0.5892557), wk =   0.0069444
        k(   41) = (   0.6481812  -0.6481812  -0.0589256), wk =   0.0277778
        k(   42) = (   0.5892557  -0.5892557   0.0000000), wk =   0.0138889
        k(   43) = (   0.0000000   0.0000000  -0.7071068), wk =   0.0034722
        k(   44) = (   0.0000000   0.1178511   0.2357023), wk =   0.0277778
        k(   45) = (  -0.0589256   0.1767767   0.2946278), wk =   0.0555556
        k(   46) = (  -0.1178511   0.2357023   0.3535534), wk =   0.0555556
        k(   47) = (   0.5303301  -0.4124790  -0.2946278), wk =   0.0555556
        k(   48) = (   0.4714045  -0.3535534  -0.2357023), wk =   0.0277778
        k(   49) = (   0.0000000   0.1178511   0.3535534), wk =   0.0277778
        k(   50) = (  -0.0589256   0.1767767   0.4124790), wk =   0.0555556
        k(   51) = (   0.5892557  -0.4714045  -0.2357023), wk =   0.0555556
        k(   52) = (   0.5303301  -0.4124790  -0.1767767), wk =   0.0555556
        k(   53) = (   0.4714045  -0.3535534  -0.1178511), wk =   0.0555556
        k(   54) = (   0.4124790  -0.2946278  -0.0589256), wk =   0.0555556
        k(   55) = (   0.3535534  -0.2357023   0.0000000), wk =   0.0277778
        k(   56) = (  -0.0000000   0.1178511   0.4714045), wk =   0.0277778
        k(   57) = (   0.6481812  -0.5303301  -0.1767767), wk =   0.0555556
        k(   58) = (   0.5892557  -0.4714045  -0.1178511), wk =   0.0555556
        k(   59) = (   0.5303301  -0.4124790  -0.0589256), wk =   0.0555556
        k(   60) = (   0.4714045  -0.3535534  -0.0000000), wk =   0.0277778
        k(   61) = (   0.7071068  -0.5892557  -0.1178511), wk =   0.0277778
        k(   62) = (   0.6481812  -0.5303301  -0.0589256), wk =   0.0555556
        k(   63) = (   0.5892557  -0.4714045  -0.0000000), wk =   0.0277778
        k(   64) = (  -0.0000000   0.1178511  -0.7071068), wk =   0.0138889
        k(   65) = (   0.7071068  -0.4714045  -0.2357023), wk =   0.0277778
        k(   66) = (   0.6481812  -0.4124790  -0.1767767), wk =   0.0555556
        k(   67) = (   0.5892557  -0.3535534  -0.1178511), wk =   0.0277778
        k(   68) = (   0.7071068  -0.4714045  -0.1178511), wk =   0.0277778
        k(   69) = (   0.6481812  -0.4124790  -0.0589256), wk =   0.0555556
        k(   70) = (   0.5892557  -0.3535534   0.0000000), wk =   0.0277778
        k(   71) = (   0.0000000   0.2357023  -0.7071068), wk =   0.0138889
        k(   72) = (   0.0000000   0.3535534  -0.7071068), wk =   0.0069444

     Dense  grid:    16889 G-vectors     FFT dimensions: (  36,  36,  36)

     Smooth grid:     5985 G-vectors     FFT dimensions: (  32,  32,  32)

     Estimated max dynamical RAM per process >      63.58 MB

     Initial potential from superposition of free atoms

     starting charge       7.9989, renormalised to       8.0000
     Starting wfcs are    8 randomized atomic wfcs

     total cpu time spent up to now is        0.4 secs

     Self-consistent Calculation

     iteration #  1     ecut=    30.00 Ry     beta= 0.70
     Davidson diagonalization with overlap
     ethr =  1.00E-02,  avg # of iterations =  2.0

     Threshold (ethr) on eigenvalues was too large:
     Diagonalizing with lowered threshold

     Davidson diagonalization with overlap
     ethr =  6.22E-04,  avg # of iterations =  1.5

     total cpu time spent up to now is        0.9 secs

     total energy              =     -22.83691178 Ry
     estimated scf accuracy    <       0.05384809 Ry

     iteration #  2     ecut=    30.00 Ry     beta= 0.70
     Davidson diagonalization with overlap
     ethr =  6.73E-04,  avg # of iterations =  1.0

     total cpu time spent up to now is        1.2 secs

     total energy              =     -22.83871853 Ry
     estimated scf accuracy    <       0.00283153 Ry

     iteration #  3     ecut=    30.00 Ry     beta= 0.70
     Davidson diagonalization with overlap
     ethr =  3.54E-05,  avg # of iterations =  2.8

     total cpu time spent up to now is        1.6 secs

     total energy              =     -22.83950483 Ry
     estimated scf accuracy    <       0.00010830 Ry

     iteration #  4     ecut=    30.00 Ry     beta= 0.70
     Davidson diagonalization with overlap
     ethr =  1.35E-06,  avg # of iterations =  3.8

     total cpu time spent up to now is        2.0 secs

     total energy              =     -22.83957412 Ry
     estimated scf accuracy    <       0.00001509 Ry

     iteration #  5     ecut=    30.00 Ry     beta= 0.70
     Davidson diagonalization with overlap
     ethr =  1.89E-07,  avg # of iterations =  3.4

     total cpu time spent up to now is        2.4 secs

     End of self-consistent calculation

          k = 0.0000 0.0000 0.0000 (   749 PWs)   bands (ev):

    -5.7563   6.2089   6.2089   6.2089

          k =-0.0589 0.0589 0.0589 (   737 PWs)   bands (ev):

    -5.6653   5.3495   6.0649   6.0649

          k =-0.1179 0.1179 0.1179 (   748 PWs)   bands (ev):

    -5.3951   3.8261   5.7578   5.7578

          k =-0.1768 0.1768 0.1768 (   754 PWs)   bands (ev):

    -4.9565   2.2792   5.4480   5.4480

          k =-0.2357 0.2357 0.2357 (   757 PWs)   bands (ev):

    -4.3794   0.8714   5.2069   5.2069

          k =-0.2946 0.2946 0.2946 (   760 PWs)   bands (ev):

    -3.7587  -0.2590   5.0584   5.0584

          k = 0.3536-0.3536-0.3536 (   754 PWs)   bands (ev):

    -3.4244  -0.7648   5.0085   5.0085

          k =-0.0000 0.0000 0.1179 (   733 PWs)   bands (ev):

    -5.6348   5.5149   5.7782   5.7782

          k =-0.0589 0.0589 0.1768 (   755 PWs)   bands (ev):

    -5.4238   4.2799   5.4137   5.6049

          k =-0.1179 0.1179 0.2357 (   753 PWs)   bands (ev):

    -5.0398   2.7771   5.1002   5.2811

          k =-0.1768 0.1768 0.2946 (   758 PWs)   bands (ev):

    -4.5038   1.3398   4.8901   4.9276

          k =-0.2357 0.2357 0.3536 (   757 PWs)   bands (ev):

    -3.8780   0.1089   4.6310   4.8002

          k = 0.4125-0.4125-0.2946 (   751 PWs)   bands (ev):

    -3.3870  -0.6615   4.4258   4.8311

          k = 0.3536-0.3536-0.2357 (   754 PWs)   bands (ev):

    -3.5079  -0.4836   4.3302   4.9744

          k = 0.2946-0.2946-0.1768 (   752 PWs)   bands (ev):

    -4.0900   0.4893   4.3574   5.2143

          k = 0.2357-0.2357-0.1179 (   752 PWs)   bands (ev):

    -4.6981   1.8045   4.5172   5.5248

          k = 0.1768-0.1768-0.0589 (   756 PWs)   bands (ev):

    -5.1869   3.2641   4.8214   5.8548

          k = 0.1179-0.1179-0.0000 (   747 PWs)   bands (ev):

    -5.5143   4.6183   5.3441   6.0907

          k =-0.0000 0.0000 0.2357 (   753 PWs)   bands (ev):

    -5.2722   4.1697   5.0143   5.0143

          k =-0.0589 0.0589 0.2946 (   750 PWs)   bands (ev):

    -4.9450   3.0817   4.6670   4.6796

          k =-0.1179 0.1179 0.3536 (   750 PWs)   bands (ev):

    -4.4568   1.7700   4.2142   4.4607

          k =-0.1768 0.1768 0.4125 (   754 PWs)   bands (ev):

    -3.8488   0.5345   3.7747   4.3767

          k = 0.4714-0.4714-0.2357 (   752 PWs)   bands (ev):

    -3.2650  -0.4003   3.4298   4.4305

          k = 0.4125-0.4125-0.1768 (   749 PWs)   bands (ev):

    -3.1505  -0.5603   3.2157   4.6146

          k = 0.3536-0.3536-0.1179 (   757 PWs)   bands (ev):

    -3.6501   0.1992   3.1590   4.9099

          k = 0.2946-0.2946-0.0589 (   748 PWs)   bands (ev):

    -4.2747   1.3469   3.3034   5.2785

          k = 0.2357-0.2357 0.0000 (   748 PWs)   bands (ev):

    -4.8068   2.4895   3.7941   5.6431

          k = 0.0000 0.0000 0.3536 (   729 PWs)   bands (ev):

    -4.6743   2.6902   4.3168   4.3168

          k =-0.0589 0.0589 0.4125 (   743 PWs)   bands (ev):

    -4.2376   1.7794   3.8512   4.0701

          k =-0.1179 0.1179 0.4714 (   752 PWs)   bands (ev):

    -3.6621   0.7498   3.2188   3.9628

          k = 0.5303-0.5303-0.1768 (   748 PWs)   bands (ev):

    -3.0378  -0.1770   2.6719   4.0015

          k = 0.4714-0.4714-0.1179 (   743 PWs)   bands (ev):

    -2.7138  -0.5919   2.3087   4.1816

          k = 0.4125-0.4125-0.0589 (   749 PWs)   bands (ev):

    -3.0899  -0.0976   2.1891   4.4867

          k = 0.3536-0.3536 0.0000 (   754 PWs)   bands (ev):

    -3.7122   0.7258   2.4532   4.8793

          k =-0.0000 0.0000 0.4714 (   749 PWs)   bands (ev):

    -3.8519   1.1956   3.7887   3.7887

          k =-0.0589 0.0589 0.5303 (   752 PWs)   bands (ev):

    -3.3170   0.4093   3.3025   3.6459

          k = 0.5893-0.5893-0.1179 (   749 PWs)   bands (ev):

    -2.6877  -0.3595   2.5739   3.6521

          k = 0.5303-0.5303-0.0589 (   744 PWs)   bands (ev):

    -2.2185  -0.8510   1.9948   3.8059

          k = 0.4714-0.4714-0.0000 (   740 PWs)   bands (ev):

    -2.4915  -0.5647   1.7928   4.0947

          k =-0.0000 0.0000 0.5893 (   749 PWs)   bands (ev):

    -2.8222  -0.2561   3.4634   3.4634

          k = 0.6482-0.6482-0.0589 (   749 PWs)   bands (ev):

    -2.2084  -0.9443   3.0314   3.4297

          k = 0.5893-0.5893 0.0000 (   744 PWs)   bands (ev):

    -1.7523  -1.3486   2.3601   3.5469

          k = 0.0000 0.0000-0.7071 (   740 PWs)   bands (ev):

    -1.6113  -1.6113   3.3538   3.3538

          k = 0.0000 0.1179 0.2357 (   752 PWs)   bands (ev):

    -5.1551   3.4802   4.5730   5.5018

          k =-0.0589 0.1768 0.2946 (   756 PWs)   bands (ev):

    -4.7186   2.2381   4.0405   5.2262

          k =-0.1179 0.2357 0.3536 (   751 PWs)   bands (ev):

    -4.1432   0.9354   3.7712   4.8983

          k = 0.5303-0.4125-0.2946 (   752 PWs)   bands (ev):

    -3.5212  -0.1552   3.6440   4.6513

          k = 0.4714-0.3536-0.2357 (   748 PWs)   bands (ev):

    -3.1826  -0.6539   3.6085   4.5595

          k = 0.0000 0.1179 0.3536 (   748 PWs)   bands (ev):

    -4.5637   2.2867   3.8769   4.5803

          k =-0.0589 0.1768 0.4125 (   750 PWs)   bands (ev):

    -4.0310   1.2356   3.3395   4.2913

          k = 0.5893-0.4714-0.2357 (   750 PWs)   bands (ev):

    -3.4053   0.1802   2.9829   4.0802

          k = 0.5303-0.4125-0.1768 (   746 PWs)   bands (ev):

    -2.9081  -0.5270   2.7371   4.0621

          k = 0.4714-0.3536-0.1179 (   748 PWs)   bands (ev):

    -3.0440  -0.3396   2.6186   4.2350

          k = 0.4125-0.2946-0.0589 (   753 PWs)   bands (ev):

    -3.6345   0.5383   2.6924   4.5524

          k = 0.3536-0.2357 0.0000 (   756 PWs)   bands (ev):

    -4.2373   1.5184   3.1075   4.9348

          k =-0.0000 0.1179 0.4714 (   754 PWs)   bands (ev):

    -3.7532   1.0202   3.3668   3.7948

          k = 0.6482-0.5303-0.1768 (   750 PWs)   bands (ev):

    -3.1473   0.1843   2.7786   3.5775

          k = 0.5893-0.4714-0.1179 (   746 PWs)   bands (ev):

    -2.5576  -0.5311   2.2572   3.5855

          k = 0.5303-0.4125-0.0589 (   743 PWs)   bands (ev):

    -2.4865  -0.6021   1.9682   3.7843

          k = 0.4714-0.3536-0.0000 (   743 PWs)   bands (ev):

    -3.0245  -0.0113   2.0550   4.1299

          k = 0.7071-0.5893-0.1179 (   745 PWs)   bands (ev):

    -2.7448  -0.2925   3.0828   3.2793

          k = 0.6482-0.5303-0.0589 (   745 PWs)   bands (ev):

    -2.1154  -0.9358   2.4536   3.2354

          k = 0.5893-0.4714-0.0000 (   745 PWs)   bands (ev):

    -1.9605  -1.0494   1.9551   3.4327

          k =-0.0000 0.1179-0.7071 (   754 PWs)   bands (ev):

    -1.5731  -1.5731   3.0473   3.0473

          k = 0.7071-0.4714-0.2357 (   748 PWs)   bands (ev):

    -3.4666   0.5623   2.6365   3.9118

          k = 0.6482-0.4125-0.1768 (   746 PWs)   bands (ev):

    -2.8422  -0.2081   2.2893   3.5744

          k = 0.5893-0.3536-0.1179 (   738 PWs)   bands (ev):

    -2.4814  -0.6377   2.1963   3.4448

          k = 0.7071-0.4714-0.1179 (   746 PWs)   bands (ev):

    -2.5307  -0.4368   2.4375   3.0564

          k = 0.6482-0.4125-0.0589 (   745 PWs)   bands (ev):

    -2.0072  -0.9436   2.1217   2.9021

          k = 0.5893-0.3536 0.0000 (   745 PWs)   bands (ev):

    -2.2388  -0.7137   1.9968   3.1274

          k = 0.0000 0.2357-0.7071 (   742 PWs)   bands (ev):

    -1.4913  -1.4913   2.5611   2.5611

          k = 0.0000 0.3536-0.7071 (   744 PWs)   bands (ev):

    -1.4472  -1.4472   2.3531   2.3531

     highest occupied level (ev):     6.2089

!    total energy              =     -22.83958000 Ry
     estimated scf accuracy    <       0.00000039 Ry

     The total energy is the sum of the following terms:
     one-electron contribution =       5.16845341 Ry
     hartree contribution      =       1.10008721 Ry
     xc contribution           =     -12.30917688 Ry
     ewald contribution        =     -16.79894374 Ry

     convergence has been achieved in   5 iterations

     Writing all to output data dir ./tmp/system.save/ :
     XML data file, charge density, pseudopotentials, collected wavefunctions

     init_run     :      0.31s CPU      0.32s WALL (       1 calls)
     electrons    :      1.96s CPU      2.01s WALL (       1 calls)

     Called by init_run:
     wfcinit      :      0.14s CPU      0.15s WALL (       1 calls)
     potinit      :      0.03s CPU      0.04s WALL (       1 calls)
     hinit0       :      0.11s CPU      0.11s WALL (       1 calls)

     Called by electrons:
     c_bands      :      1.55s CPU      1.58s WALL (       6 calls)
     sum_band     :      0.31s CPU      0.32s WALL (       6 calls)
     v_of_rho     :      0.04s CPU      0.04s WALL (       6 calls)
     newd         :      0.08s CPU      0.08s WALL (       6 calls)
     mix_rho      :      0.00s CPU      0.00s WALL (       6 calls)

     Called by c_bands:
     init_us_2    :      0.06s CPU      0.06s WALL (     936 calls)
     cegterg      :      1.35s CPU      1.38s WALL (     432 calls)

     Called by *egterg:
     cdiaghg      :      0.02s CPU      0.02s WALL (    1403 calls)
     h_psi        :      1.30s CPU      1.32s WALL (    1547 calls)
     s_psi        :      0.05s CPU      0.06s WALL (    1547 calls)
     g_psi        :      0.00s CPU      0.00s WALL (    1043 calls)

     Called by h_psi:
     h_psi:calbec :      0.08s CPU      0.08s WALL (    1547 calls)
     vloc_psi     :      1.16s CPU      1.18s WALL (    1547 calls)
                                        0.00s GPU  (    1547 calls)
     add_vuspsi   :      0.06s CPU      0.06s WALL (    1547 calls)

     General routines
     calbec       :      0.11s CPU      0.11s WALL (    1979 calls)
     fft          :      0.03s CPU      0.03s WALL (      77 calls)
     ffts         :      0.02s CPU      0.02s WALL (      12 calls)
     fftw         :      1.18s CPU      1.20s WALL (   12842 calls)
     interpolate  :      0.02s CPU      0.02s WALL (       6 calls)

     Parallel routines

     PWSCF        :      2.30s CPU      2.38s WALL


   This run was terminated on:   3:58:47  26Sep2026            

=------------------------------------------------------------------------------=
   JOB DONE.
=------------------------------------------------------------------------------=
