
     Program PWSCF v.7.5 starts on 26Sep2026 at  3:48: 9 
        Git branch: HEAD
        Last git commit: 770a0b2d12928a67048e2f3da8d10d057e52179e
        Last git commit date: Tue Aug 19 09:57:12 2025 +0000
        Last git commit subject: Merge branch 'QE-7.5-RC' into 'master'

     This program is part of the open-source Quantum ESPRESSO suite
     for quantum simulation of materials; please cite
         "P. Giannozzi et al., J. Phys.:Condens. Matter 21 395502 (2009);
         "P. Giannozzi et al., J. Phys.:Condens. Matter 29 465901 (2017);
         "P. Giannozzi et al., J. Chem. Phys. 152 154105 (2020);
          URL http://www.quantum-espresso.org", 
     in publications or presentations arising from this work. More details at
     http://www.quantum-espresso.org/quote

     Parallel version (MPI), running on     1 processors

     MPI processes distributed on     1 nodes
     0 MiB available memory on the printing compute node when the environment starts

     Reading input from pw.in

     Current dimensions of program PWSCF are:
     Max number of different atomic species (ntypx) = 10
     Max number of k-points (npk) =  40000
     Max angular momentum in pseudopotentials (lmaxx) =  4
     Message from routine volume:
     axis vectors are left-handed
     Message from routine setup:
     using ibrav=0 with symmetry is DISCOURAGED, use correct ibrav instead

     Subspace diagonalization in iterative solution of the eigenvalue problem:
     a serial algorithm will be used


     G-vector sticks info
     --------------------
     sticks:   dense  smooth     PW     G-vecs:    dense   smooth      PW
     Sum         733     361    121                12939     4573     893

     Using Slab Decomposition



     bravais-lattice index     =            0
     lattice parameter (alat)  =       7.2558  a.u.
     unit-cell volume          =     270.1072 (a.u.)^3
     number of atoms/cell      =            2
     number of atomic types    =            1
     number of electrons       =         8.00
     number of Kohn-Sham states=            4
     kinetic-energy cutoff     =      25.0000  Ry
     charge density cutoff     =     200.0000  Ry
     scf convergence threshold =      1.0E-06
     mixing beta               =       0.7000
     number of iterations used =            8  plain     mixing
     Exchange-correlation= PBE
                           (   1   4   3   4   0   0   0)

     celldm(1)=   7.255773  celldm(2)=   0.000000  celldm(3)=   0.000000
     celldm(4)=   0.000000  celldm(5)=   0.000000  celldm(6)=   0.000000

     crystal axes: (cart. coord. in units of alat)
               a(1) = (   0.707107   0.707107   0.000000 )  
               a(2) = (   0.707107   0.000000   0.707107 )  
               a(3) = (   0.000000   0.707107   0.707107 )  

     reciprocal axes: (cart. coord. in units 2 pi/alat)
               b(1) = (  0.707107  0.707107 -0.707107 )  
               b(2) = (  0.707107 -0.707107  0.707107 )  
               b(3) = ( -0.707107  0.707107  0.707107 )  


     PseudoPot. # 1 for Si read from file:
     ./Si.pbe-n-rrkjus_psl.1.0.0.UPF
     MD5 check sum: 0b0bb1205258b0d07b9f9672cf965d36
     Pseudo is Ultrasoft + core correction, Zval =  4.0
     Generated using "atomic" code by A. Dal Corso  v.5.1
     Using radial grid of 1141 points,  6 beta functions with: 
                l(1) =   0
                l(2) =   0
                l(3) =   1
                l(4) =   1
                l(5) =   2
                l(6) =   2
     Q(r) pseudized with 0 coefficients 


     atomic species   valence    mass     pseudopotential
     Si                4.00    28.08600     Si( 1.00)

     48 Sym. Ops., with inversion, found (24 have fractional translation)



   Cartesian axes

     site n.     atom                  positions (alat units)
         1        Si     tau(   1) = (   0.0000000   0.0000000   0.0000000  )
         2        Si     tau(   2) = (   0.3535534   0.3535534   0.3535534  )

     number of k points=    47
                       cart. coord. in units 2pi/alat
        k(    1) = (   0.0000000   0.0000000   0.0000000), wk =   0.0020000
        k(    2) = (  -0.0707107   0.0707107   0.0707107), wk =   0.0160000
        k(    3) = (  -0.1414214   0.1414214   0.1414214), wk =   0.0160000
        k(    4) = (  -0.2121320   0.2121320   0.2121320), wk =   0.0160000
        k(    5) = (  -0.2828427   0.2828427   0.2828427), wk =   0.0160000
        k(    6) = (   0.3535534  -0.3535534  -0.3535534), wk =   0.0080000
        k(    7) = (   0.0000000  -0.0000000   0.1414214), wk =   0.0120000
        k(    8) = (  -0.0707107   0.0707107   0.2121320), wk =   0.0480000
        k(    9) = (  -0.1414214   0.1414214   0.2828427), wk =   0.0480000
        k(   10) = (  -0.2121320   0.2121320   0.3535534), wk =   0.0480000
        k(   11) = (   0.4242641  -0.4242641  -0.2828427), wk =   0.0480000
        k(   12) = (   0.3535534  -0.3535534  -0.2121320), wk =   0.0480000
        k(   13) = (   0.2828427  -0.2828427  -0.1414214), wk =   0.0480000
        k(   14) = (   0.2121320  -0.2121320  -0.0707107), wk =   0.0480000
        k(   15) = (   0.1414214  -0.1414214   0.0000000), wk =   0.0240000
        k(   16) = (   0.0000000  -0.0000000   0.2828427), wk =   0.0120000
        k(   17) = (  -0.0707107   0.0707107   0.3535534), wk =   0.0480000
        k(   18) = (  -0.1414214   0.1414214   0.4242641), wk =   0.0480000
        k(   19) = (   0.4949747  -0.4949747  -0.2121320), wk =   0.0480000
        k(   20) = (   0.4242641  -0.4242641  -0.1414214), wk =   0.0480000
        k(   21) = (   0.3535534  -0.3535534  -0.0707107), wk =   0.0480000
        k(   22) = (   0.2828427  -0.2828427   0.0000000), wk =   0.0240000
        k(   23) = (  -0.0000000   0.0000000   0.4242641), wk =   0.0120000
        k(   24) = (  -0.0707107   0.0707107   0.4949747), wk =   0.0480000
        k(   25) = (   0.5656854  -0.5656854  -0.1414214), wk =   0.0480000
        k(   26) = (   0.4949747  -0.4949747  -0.0707107), wk =   0.0480000
        k(   27) = (   0.4242641  -0.4242641  -0.0000000), wk =   0.0240000
        k(   28) = (   0.0000000  -0.0000000   0.5656854), wk =   0.0120000
        k(   29) = (   0.6363961  -0.6363961  -0.0707107), wk =   0.0480000
        k(   30) = (   0.5656854  -0.5656854   0.0000000), wk =   0.0240000
        k(   31) = (   0.0000000   0.0000000  -0.7071068), wk =   0.0060000
        k(   32) = (   0.0000000   0.1414214   0.2828427), wk =   0.0480000
        k(   33) = (  -0.0707107   0.2121320   0.3535534), wk =   0.0960000
        k(   34) = (   0.5656854  -0.4242641  -0.2828427), wk =   0.0960000
        k(   35) = (   0.4949747  -0.3535534  -0.2121320), wk =   0.0480000
        k(   36) = (  -0.0000000   0.1414214   0.4242641), wk =   0.0480000
        k(   37) = (   0.6363961  -0.4949747  -0.2121320), wk =   0.0960000
        k(   38) = (   0.5656854  -0.4242641  -0.1414214), wk =   0.0960000
        k(   39) = (   0.4949747  -0.3535534  -0.0707107), wk =   0.0960000
        k(   40) = (   0.4242641  -0.2828427   0.0000000), wk =   0.0480000
        k(   41) = (   0.7071068  -0.5656854  -0.1414214), wk =   0.0480000
        k(   42) = (   0.6363961  -0.4949747  -0.0707107), wk =   0.0960000
        k(   43) = (   0.5656854  -0.4242641   0.0000000), wk =   0.0480000
        k(   44) = (   0.0000000   0.1414214  -0.7071068), wk =   0.0240000
        k(   45) = (   0.7071068  -0.4242641  -0.1414214), wk =   0.0480000
        k(   46) = (   0.6363961  -0.3535534  -0.0707107), wk =   0.0480000
        k(   47) = (   0.0000000   0.2828427  -0.7071068), wk =   0.0240000

     Dense  grid:    12939 G-vectors     FFT dimensions: (  36,  36,  36)

     Smooth grid:     4573 G-vectors     FFT dimensions: (  24,  24,  24)

     Estimated max dynamical RAM per process >      48.76 MB

     Initial potential from superposition of free atoms

     starting charge       7.9989, renormalised to       8.0000
     Starting wfcs are    8 randomized atomic wfcs

     total cpu time spent up to now is        0.2 secs

     Self-consistent Calculation

     iteration #  1     ecut=    25.00 Ry     beta= 0.70
     Davidson diagonalization with overlap
     ethr =  1.00E-02,  avg # of iterations =  2.0

     Threshold (ethr) on eigenvalues was too large:
     Diagonalizing with lowered threshold

     Davidson diagonalization with overlap
     ethr =  6.22E-04,  avg # of iterations =  1.4

     total cpu time spent up to now is        0.4 secs

     total energy              =     -22.83637114 Ry
     estimated scf accuracy    <       0.05383714 Ry

     iteration #  2     ecut=    25.00 Ry     beta= 0.70
     Davidson diagonalization with overlap
     ethr =  6.73E-04,  avg # of iterations =  1.0

     total cpu time spent up to now is        0.6 secs

     total energy              =     -22.83819246 Ry
     estimated scf accuracy    <       0.00282474 Ry

     iteration #  3     ecut=    25.00 Ry     beta= 0.70
     Davidson diagonalization with overlap
     ethr =  3.53E-05,  avg # of iterations =  2.7

     total cpu time spent up to now is        0.7 secs

     total energy              =     -22.83897854 Ry
     estimated scf accuracy    <       0.00010897 Ry

     iteration #  4     ecut=    25.00 Ry     beta= 0.70
     Davidson diagonalization with overlap
     ethr =  1.36E-06,  avg # of iterations =  4.1

     total cpu time spent up to now is        0.8 secs

     total energy              =     -22.83904551 Ry
     estimated scf accuracy    <       0.00001614 Ry

     iteration #  5     ecut=    25.00 Ry     beta= 0.70
     Davidson diagonalization with overlap
     ethr =  2.02E-07,  avg # of iterations =  3.2

     total cpu time spent up to now is        1.0 secs

     End of self-consistent calculation

          k = 0.0000 0.0000 0.0000 (   537 PWs)   bands (ev):

    -5.7557   6.2108   6.2108   6.2108

          k =-0.0707 0.0707 0.0707 (   555 PWs)   bands (ev):

    -5.6248   5.0639   6.0118   6.0118

          k =-0.1414 0.1414 0.1414 (   564 PWs)   bands (ev):

    -5.2382   3.1996   5.6300   5.6300

          k =-0.2121 0.2121 0.2121 (   571 PWs)   bands (ev):

    -4.6227   1.4118   5.2944   5.2944

          k =-0.2828 0.2828 0.2828 (   571 PWs)   bands (ev):

    -3.8753  -0.0653   5.0815   5.0815

          k = 0.3536-0.3536-0.3536 (   568 PWs)   bands (ev):

    -3.4233  -0.7639   5.0097   5.0098

          k = 0.0000-0.0000 0.1414 (   564 PWs)   bands (ev):

    -5.5809   5.2715   5.6329   5.6329

          k =-0.0707 0.0707 0.2121 (   565 PWs)   bands (ev):

    -5.2783   3.7574   5.1972   5.3689

          k =-0.1414 0.1414 0.2828 (   575 PWs)   bands (ev):

    -4.7347   1.9953   4.8775   4.9349

          k =-0.2121 0.2121 0.3536 (   575 PWs)   bands (ev):

    -4.0103   0.4206   4.5228   4.7299

          k = 0.4243-0.4243-0.2828 (   573 PWs)   bands (ev):

    -3.3689  -0.6175   4.2319   4.7629

          k = 0.3536-0.3536-0.2121 (   575 PWs)   bands (ev):

    -3.5363  -0.3685   4.1033   4.9629

          k = 0.2828-0.2828-0.1414 (   571 PWs)   bands (ev):

    -4.2659   0.9149   4.1631   5.2983

          k = 0.2121-0.2121-0.0707 (   570 PWs)   bands (ev):

    -4.9421   2.5659   4.4386   5.7054

          k = 0.1414-0.1414 0.0000 (   559 PWs)   bands (ev):

    -5.4082   4.1784   5.0485   6.0334

          k = 0.0000-0.0000 0.2828 (   572 PWs)   bands (ev):

    -5.0602   3.5856   4.7202   4.7202

          k =-0.0707 0.0707 0.3536 (   572 PWs)   bands (ev):

    -4.5944   2.3377   4.2126   4.3715

          k =-0.1414 0.1414 0.4243 (   572 PWs)   bands (ev):

    -3.9187   0.8990   3.5839   4.2116

          k = 0.4950-0.4950-0.2121 (   570 PWs)   bands (ev):

    -3.1870  -0.2866   3.0736   4.2556

          k = 0.4243-0.4243-0.1414 (   572 PWs)   bands (ev):

    -3.0338  -0.4952   2.7746   4.4942

          k = 0.3536-0.3536-0.0707 (   570 PWs)   bands (ev):

    -3.6883   0.4928   2.7537   4.8922

          k = 0.2828-0.2828 0.0000 (   562 PWs)   bands (ev):

    -4.4066   1.7324   3.2069   5.3636

          k =-0.0000 0.0000 0.4243 (   568 PWs)   bands (ev):

    -4.2062   1.7927   3.9781   3.9781

          k =-0.0707 0.0707 0.4950 (   573 PWs)   bands (ev):

    -3.5931   0.7863   3.3512   3.7730

          k = 0.5657-0.5657-0.1414 (   570 PWs)   bands (ev):

    -2.8423  -0.2205   2.5217   3.7796

          k = 0.4950-0.4950-0.0707 (   571 PWs)   bands (ev):

    -2.4226  -0.6969   1.9676   3.9954

          k = 0.4243-0.4243-0.0000 (   572 PWs)   bands (ev):

    -2.9614  -0.1068   1.9415   4.3922

          k = 0.0000-0.0000 0.5657 (   568 PWs)   bands (ev):

    -3.0428   0.0296   3.5126   3.5126

          k = 0.6364-0.6364-0.0707 (   568 PWs)   bands (ev):

    -2.3134  -0.8112   2.9261   3.4639

          k = 0.5657-0.5657 0.0000 (   564 PWs)   bands (ev):

    -1.8370  -1.2320   2.1423   3.6313

          k = 0.0000 0.0000-0.7071 (   588 PWs)   bands (ev):

    -1.6103  -1.6103   3.3547   3.3547

          k = 0.0000 0.1414 0.2828 (   570 PWs)   bands (ev):

    -4.8949   2.8346   4.1271   5.2378

          k =-0.0707 0.2121 0.3536 (   571 PWs)   bands (ev):

    -4.2832   1.4245   3.5383   4.8620

          k = 0.5657-0.4243-0.2828 (   569 PWs)   bands (ev):

    -3.5358   0.0604   3.3071   4.5112

          k = 0.4950-0.3536-0.2121 (   564 PWs)   bands (ev):

    -3.0762  -0.6178   3.2474   4.3731

          k =-0.0000 0.1414 0.4243 (   573 PWs)   bands (ev):

    -4.0564   1.4363   3.3998   4.1224

          k = 0.6364-0.4950-0.2121 (   570 PWs)   bands (ev):

    -3.3357   0.3337   2.7809   3.7932

          k = 0.5657-0.4243-0.1414 (   570 PWs)   bands (ev):

    -2.6851  -0.5299   2.3723   3.7375

          k = 0.4950-0.3536-0.0707 (   569 PWs)   bands (ev):

    -2.8867  -0.2703   2.2214   3.9779

          k = 0.4243-0.2828 0.0000 (   568 PWs)   bands (ev):

    -3.6227   0.6798   2.5219   4.4186

          k = 0.7071-0.5657-0.1414 (   577 PWs)   bands (ev):

    -2.9244  -0.0561   2.9883   3.3149

          k = 0.6364-0.4950-0.0707 (   574 PWs)   bands (ev):

    -2.1855  -0.8311   2.2859   3.2241

          k = 0.5657-0.4243 0.0000 (   569 PWs)   bands (ev):

    -2.1910  -0.8045   1.8696   3.4941

          k = 0.0000 0.1414-0.7071 (   578 PWs)   bands (ev):

    -1.5570  -1.5570   2.9454   2.9454

          k = 0.7071-0.4243-0.1414 (   565 PWs)   bands (ev):

    -2.6032  -0.3541   2.2273   3.2150

          k = 0.6364-0.3536-0.0707 (   570 PWs)   bands (ev):

    -2.0918  -0.8636   2.0693   2.9636

          k = 0.0000 0.2828-0.7071 (   568 PWs)   bands (ev):

    -1.4631  -1.4631   2.4317   2.4317

     highest occupied level (ev):     6.2108

!    total energy              =     -22.83905087 Ry
     estimated scf accuracy    <       0.00000026 Ry

     The total energy is the sum of the following terms:
     one-electron contribution =       5.16897913 Ry
     hartree contribution      =       1.10019751 Ry
     xc contribution           =     -12.30928375 Ry
     ewald contribution        =     -16.79894377 Ry

     convergence has been achieved in   5 iterations

     Writing all to output data dir ./tmp/system.save/ :
     XML data file, charge density, pseudopotentials, collected wavefunctions

     init_run     :      0.19s CPU      0.19s WALL (       1 calls)
     electrons    :      0.75s CPU      0.76s WALL (       1 calls)

     Called by init_run:
     wfcinit      :      0.05s CPU      0.05s WALL (       1 calls)
     potinit      :      0.02s CPU      0.02s WALL (       1 calls)
     hinit0       :      0.10s CPU      0.10s WALL (       1 calls)

     Called by electrons:
     c_bands      :      0.52s CPU      0.53s WALL (       6 calls)
     sum_band     :      0.14s CPU      0.14s WALL (       6 calls)
     v_of_rho     :      0.04s CPU      0.04s WALL (       6 calls)
     newd         :      0.06s CPU      0.06s WALL (       6 calls)
     mix_rho      :      0.00s CPU      0.00s WALL (       6 calls)

     Called by c_bands:
     init_us_2    :      0.03s CPU      0.03s WALL (     611 calls)
     cegterg      :      0.42s CPU      0.43s WALL (     282 calls)

     Called by *egterg:
     cdiaghg      :      0.01s CPU      0.01s WALL (     915 calls)
     h_psi        :      0.37s CPU      0.37s WALL (    1009 calls)
     s_psi        :      0.03s CPU      0.03s WALL (    1009 calls)
     g_psi        :      0.00s CPU      0.00s WALL (     680 calls)

     Called by h_psi:
     h_psi:calbec :      0.04s CPU      0.04s WALL (    1009 calls)
     vloc_psi     :      0.30s CPU      0.30s WALL (    1009 calls)
                                        0.00s GPU  (    1009 calls)
     add_vuspsi   :      0.03s CPU      0.03s WALL (    1009 calls)

     General routines
     calbec       :      0.05s CPU      0.05s WALL (    1291 calls)
     fft          :      0.03s CPU      0.03s WALL (      77 calls)
     ffts         :      0.01s CPU      0.01s WALL (      12 calls)
     fftw         :      0.30s CPU      0.30s WALL (    8354 calls)
     interpolate  :      0.01s CPU      0.01s WALL (       6 calls)

     Parallel routines

     PWSCF        :      0.97s CPU      0.99s WALL


   This run was terminated on:   3:48:10  26Sep2026            

=------------------------------------------------------------------------------=
   JOB DONE.
=------------------------------------------------------------------------------=
