
     Program PWSCF v.7.5 starts on 26Sep2026 at  3:48: 2 
        Git branch: HEAD
        Last git commit: 770a0b2d12928a67048e2f3da8d10d057e52179e
        Last git commit date: Tue Aug 19 09:57:12 2025 +0000
        Last git commit subject: Merge branch 'QE-7.5-RC' into 'master'

     This program is part of the open-source Quantum ESPRESSO suite
     for quantum simulation of materials; please cite
         "P. Giannozzi et al., J. Phys.:Condens. Matter 21 395502 (2009);
         "P. Giannozzi et al., J. Phys.:Condens. Matter 29 465901 (2017);
         "P. Giannozzi et al., J. Chem. Phys. 152 154105 (2020);
          URL http://www.quantum-espresso.org", 
     in publications or presentations arising from this work. More details at
     http://www.quantum-espresso.org/quote

     Parallel version (MPI), running on     1 processors

     MPI processes distributed on     1 nodes
     0 MiB available memory on the printing compute node when the environment starts

     Reading input from pw.in

     Current dimensions of program PWSCF are:
     Max number of different atomic species (ntypx) = 10
     Max number of k-points (npk) =  40000
     Max angular momentum in pseudopotentials (lmaxx) =  4
     Message from routine volume:
     axis vectors are left-handed
     Message from routine setup:
     using ibrav=0 with symmetry is DISCOURAGED, use correct ibrav instead

     Subspace diagonalization in iterative solution of the eigenvalue problem:
     a serial algorithm will be used


     G-vector sticks info
     --------------------
     sticks:   dense  smooth     PW     G-vecs:    dense   smooth      PW
     Sum         733     361    121                12939     4573     893

     Using Slab Decomposition



     bravais-lattice index     =            0
     lattice parameter (alat)  =       7.2558  a.u.
     unit-cell volume          =     270.1072 (a.u.)^3
     number of atoms/cell      =            2
     number of atomic types    =            1
     number of electrons       =         8.00
     number of Kohn-Sham states=            4
     kinetic-energy cutoff     =      25.0000  Ry
     charge density cutoff     =     200.0000  Ry
     scf convergence threshold =      1.0E-06
     mixing beta               =       0.7000
     number of iterations used =            8  plain     mixing
     Exchange-correlation= PBE
                           (   1   4   3   4   0   0   0)

     celldm(1)=   7.255773  celldm(2)=   0.000000  celldm(3)=   0.000000
     celldm(4)=   0.000000  celldm(5)=   0.000000  celldm(6)=   0.000000

     crystal axes: (cart. coord. in units of alat)
               a(1) = (   0.707107   0.707107   0.000000 )  
               a(2) = (   0.707107   0.000000   0.707107 )  
               a(3) = (   0.000000   0.707107   0.707107 )  

     reciprocal axes: (cart. coord. in units 2 pi/alat)
               b(1) = (  0.707107  0.707107 -0.707107 )  
               b(2) = (  0.707107 -0.707107  0.707107 )  
               b(3) = ( -0.707107  0.707107  0.707107 )  


     PseudoPot. # 1 for Si read from file:
     ./Si.pbe-n-rrkjus_psl.1.0.0.UPF
     MD5 check sum: 0b0bb1205258b0d07b9f9672cf965d36
     Pseudo is Ultrasoft + core correction, Zval =  4.0
     Generated using "atomic" code by A. Dal Corso  v.5.1
     Using radial grid of 1141 points,  6 beta functions with: 
                l(1) =   0
                l(2) =   0
                l(3) =   1
                l(4) =   1
                l(5) =   2
                l(6) =   2
     Q(r) pseudized with 0 coefficients 


     atomic species   valence    mass     pseudopotential
     Si                4.00    28.08600     Si( 1.00)

     48 Sym. Ops., with inversion, found (24 have fractional translation)



   Cartesian axes

     site n.     atom                  positions (alat units)
         1        Si     tau(   1) = (   0.0000000   0.0000000   0.0000000  )
         2        Si     tau(   2) = (   0.3535534   0.3535534   0.3535534  )

     number of k points=    29
                       cart. coord. in units 2pi/alat
        k(    1) = (   0.0000000   0.0000000   0.0000000), wk =   0.0039062
        k(    2) = (  -0.0883883   0.0883883   0.0883883), wk =   0.0312500
        k(    3) = (  -0.1767767   0.1767767   0.1767767), wk =   0.0312500
        k(    4) = (  -0.2651650   0.2651650   0.2651650), wk =   0.0312500
        k(    5) = (   0.3535534  -0.3535534  -0.3535534), wk =   0.0156250
        k(    6) = (   0.0000000   0.0000000   0.1767767), wk =   0.0234375
        k(    7) = (  -0.0883883   0.0883883   0.2651650), wk =   0.0937500
        k(    8) = (  -0.1767767   0.1767767   0.3535534), wk =   0.0937500
        k(    9) = (   0.4419417  -0.4419417  -0.2651650), wk =   0.0937500
        k(   10) = (   0.3535534  -0.3535534  -0.1767767), wk =   0.0937500
        k(   11) = (   0.2651650  -0.2651650  -0.0883883), wk =   0.0937500
        k(   12) = (   0.1767767  -0.1767767   0.0000000), wk =   0.0468750
        k(   13) = (   0.0000000   0.0000000   0.3535534), wk =   0.0234375
        k(   14) = (  -0.0883883   0.0883883   0.4419417), wk =   0.0937500
        k(   15) = (   0.5303301  -0.5303301  -0.1767767), wk =   0.0937500
        k(   16) = (   0.4419417  -0.4419417  -0.0883883), wk =   0.0937500
        k(   17) = (   0.3535534  -0.3535534   0.0000000), wk =   0.0468750
        k(   18) = (   0.0000000  -0.0000000   0.5303301), wk =   0.0234375
        k(   19) = (   0.6187184  -0.6187184  -0.0883883), wk =   0.0937500
        k(   20) = (   0.5303301  -0.5303301   0.0000000), wk =   0.0468750
        k(   21) = (   0.0000000   0.0000000  -0.7071068), wk =   0.0117188
        k(   22) = (   0.0000000   0.1767767   0.3535534), wk =   0.0937500
        k(   23) = (   0.6187184  -0.4419417  -0.2651650), wk =   0.1875000
        k(   24) = (   0.5303301  -0.3535534  -0.1767767), wk =   0.0937500
        k(   25) = (   0.7071068  -0.5303301  -0.1767767), wk =   0.0937500
        k(   26) = (   0.6187184  -0.4419417  -0.0883883), wk =   0.1875000
        k(   27) = (   0.5303301  -0.3535534   0.0000000), wk =   0.0937500
        k(   28) = (  -0.0000000   0.1767767  -0.7071068), wk =   0.0468750
        k(   29) = (   0.0000000   0.3535534  -0.7071068), wk =   0.0234375

     Dense  grid:    12939 G-vectors     FFT dimensions: (  36,  36,  36)

     Smooth grid:     4573 G-vectors     FFT dimensions: (  24,  24,  24)

     Estimated max dynamical RAM per process >      48.13 MB

     Initial potential from superposition of free atoms

     starting charge       7.9989, renormalised to       8.0000
     Starting wfcs are    8 randomized atomic wfcs

     total cpu time spent up to now is        0.2 secs

     Self-consistent Calculation

     iteration #  1     ecut=    25.00 Ry     beta= 0.70
     Davidson diagonalization with overlap
     ethr =  1.00E-02,  avg # of iterations =  2.0

     Threshold (ethr) on eigenvalues was too large:
     Diagonalizing with lowered threshold

     Davidson diagonalization with overlap
     ethr =  6.23E-04,  avg # of iterations =  1.4

     total cpu time spent up to now is        0.4 secs

     total energy              =     -22.83612620 Ry
     estimated scf accuracy    <       0.05404078 Ry

     iteration #  2     ecut=    25.00 Ry     beta= 0.70
     Davidson diagonalization with overlap
     ethr =  6.76E-04,  avg # of iterations =  1.0

     total cpu time spent up to now is        0.4 secs

     total energy              =     -22.83799350 Ry
     estimated scf accuracy    <       0.00281186 Ry

     iteration #  3     ecut=    25.00 Ry     beta= 0.70
     Davidson diagonalization with overlap
     ethr =  3.51E-05,  avg # of iterations =  2.8

     total cpu time spent up to now is        0.5 secs

     total energy              =     -22.83874500 Ry
     estimated scf accuracy    <       0.00010276 Ry

     iteration #  4     ecut=    25.00 Ry     beta= 0.70
     Davidson diagonalization with overlap
     ethr =  1.28E-06,  avg # of iterations =  4.0

     total cpu time spent up to now is        0.6 secs

     total energy              =     -22.83881444 Ry
     estimated scf accuracy    <       0.00001163 Ry

     iteration #  5     ecut=    25.00 Ry     beta= 0.70
     Davidson diagonalization with overlap
     ethr =  1.45E-07,  avg # of iterations =  3.2

     total cpu time spent up to now is        0.7 secs

     End of self-consistent calculation

          k = 0.0000 0.0000 0.0000 (   537 PWs)   bands (ev):

    -5.7546   6.2122   6.2122   6.2122

          k =-0.0884 0.0884 0.0884 (   567 PWs)   bands (ev):

    -5.5505   4.6115   5.9222   5.9222

          k =-0.1768 0.1768 0.1768 (   570 PWs)   bands (ev):

    -4.9548   2.2817   5.4506   5.4506

          k =-0.2652 0.2652 0.2652 (   580 PWs)   bands (ev):

    -4.0607   0.2603   5.1230   5.1230

          k = 0.3536-0.3536-0.3536 (   568 PWs)   bands (ev):

    -3.4221  -0.7629   5.0110   5.0110

          k = 0.0000 0.0000 0.1768 (   564 PWs)   bands (ev):

    -5.4817   4.8772   5.4037   5.4037

          k =-0.0884 0.0884 0.2652 (   571 PWs)   bands (ev):

    -5.0130   2.9853   4.8911   4.9677

          k =-0.1768 0.1768 0.3536 (   579 PWs)   bands (ev):

    -4.1978   0.9233   4.3756   4.6226

          k = 0.4419-0.4419-0.2652 (   573 PWs)   bands (ev):

    -3.3356  -0.5412   3.9295   4.6472

          k = 0.3536-0.3536-0.1768 (   575 PWs)   bands (ev):

    -3.5804  -0.1702   3.7476   4.9440

          k = 0.2652-0.2652-0.0884 (   574 PWs)   bands (ev):

    -4.5042   1.5830   3.8984   5.4364

          k = 0.1768-0.1768 0.0000 (   560 PWs)   bands (ev):

    -5.2142   3.5259   4.5812   5.9185

          k = 0.0000 0.0000 0.3536 (   576 PWs)   bands (ev):

    -4.6726   2.6929   4.3192   4.3192

          k =-0.0884 0.0884 0.4419 (   571 PWs)   bands (ev):

    -3.9623   1.2683   3.5381   4.0007

          k = 0.5303-0.5303-0.1768 (   562 PWs)   bands (ev):

    -3.0356  -0.1746   2.6742   4.0039

          k = 0.4419-0.4419-0.0884 (   570 PWs)   bands (ev):

    -2.8312  -0.4333   2.2152   4.3226

          k = 0.3536-0.3536 0.0000 (   574 PWs)   bands (ev):

    -3.7103   0.7283   2.4553   4.8818

          k = 0.0000-0.0000 0.5303 (   568 PWs)   bands (ev):

    -3.3596   0.4637   3.6019   3.6019

          k = 0.6187-0.6187-0.0884 (   570 PWs)   bands (ev):

    -2.4619  -0.6218   2.7722   3.5256

          k = 0.5303-0.5303 0.0000 (   572 PWs)   bands (ev):

    -2.0226  -1.0188   1.9056   3.7834

          k = 0.0000 0.0000-0.7071 (   588 PWs)   bands (ev):

    -1.6091  -1.6091   3.3558   3.3558

          k = 0.0000 0.1768 0.3536 (   570 PWs)   bands (ev):

    -4.4250   1.9198   3.4957   4.7821

          k = 0.6187-0.4419-0.2652 (   570 PWs)   bands (ev):

    -3.5363   0.3667   2.8875   4.2799

          k = 0.5303-0.3536-0.1768 (   560 PWs)   bands (ev):

    -2.8832  -0.5790   2.7587   4.0500

          k = 0.7071-0.5303-0.1768 (   577 PWs)   bands (ev):

    -3.1609   0.2445   2.8459   3.4493

          k = 0.6187-0.4419-0.0884 (   567 PWs)   bands (ev):

    -2.2854  -0.7239   2.1473   3.2484

          k = 0.5303-0.3536 0.0000 (   565 PWs)   bands (ev):

    -2.6362  -0.3605   1.9803   3.6248

          k =-0.0000 0.1768-0.7071 (   576 PWs)   bands (ev):

    -1.5308  -1.5308   2.7913   2.7913

          k = 0.0000 0.3536-0.7071 (   560 PWs)   bands (ev):

    -1.4447  -1.4447   2.3552   2.3552

     highest occupied level (ev):     6.2122

!    total energy              =     -22.83881933 Ry
     estimated scf accuracy    <       0.00000031 Ry

     The total energy is the sum of the following terms:
     one-electron contribution =       5.16885891 Ry
     hartree contribution      =       1.10087533 Ry
     xc contribution           =     -12.30960980 Ry
     ewald contribution        =     -16.79894377 Ry

     convergence has been achieved in   5 iterations

     Writing all to output data dir ./tmp/system.save/ :
     XML data file, charge density, pseudopotentials, collected wavefunctions

     init_run     :      0.17s CPU      0.17s WALL (       1 calls)
     electrons    :      0.53s CPU      0.54s WALL (       1 calls)

     Called by init_run:
     wfcinit      :      0.03s CPU      0.03s WALL (       1 calls)
     potinit      :      0.02s CPU      0.02s WALL (       1 calls)
     hinit0       :      0.10s CPU      0.10s WALL (       1 calls)

     Called by electrons:
     c_bands      :      0.33s CPU      0.33s WALL (       6 calls)
     sum_band     :      0.11s CPU      0.12s WALL (       6 calls)
     v_of_rho     :      0.04s CPU      0.04s WALL (       6 calls)
     newd         :      0.06s CPU      0.06s WALL (       6 calls)
     mix_rho      :      0.00s CPU      0.00s WALL (       6 calls)

     Called by c_bands:
     init_us_2    :      0.02s CPU      0.02s WALL (     377 calls)
     cegterg      :      0.27s CPU      0.27s WALL (     174 calls)

     Called by *egterg:
     cdiaghg      :      0.01s CPU      0.01s WALL (     563 calls)
     h_psi        :      0.23s CPU      0.24s WALL (     621 calls)
     s_psi        :      0.02s CPU      0.02s WALL (     621 calls)
     g_psi        :      0.00s CPU      0.00s WALL (     418 calls)

     Called by h_psi:
     h_psi:calbec :      0.03s CPU      0.03s WALL (     621 calls)
     vloc_psi     :      0.19s CPU      0.19s WALL (     621 calls)
                                        0.00s GPU  (     621 calls)
     add_vuspsi   :      0.02s CPU      0.02s WALL (     621 calls)

     General routines
     calbec       :      0.03s CPU      0.03s WALL (     795 calls)
     fft          :      0.03s CPU      0.03s WALL (      77 calls)
     ffts         :      0.01s CPU      0.01s WALL (      12 calls)
     fftw         :      0.19s CPU      0.19s WALL (    5166 calls)
     interpolate  :      0.01s CPU      0.01s WALL (       6 calls)

     Parallel routines

     PWSCF        :      0.73s CPU      0.75s WALL


   This run was terminated on:   3:48: 2  26Sep2026            

=------------------------------------------------------------------------------=
   JOB DONE.
=------------------------------------------------------------------------------=
