
     Program PWSCF v.7.5 starts on 26Sep2026 at  3:48:10 
        Git branch: HEAD
        Last git commit: 770a0b2d12928a67048e2f3da8d10d057e52179e
        Last git commit date: Tue Aug 19 09:57:12 2025 +0000
        Last git commit subject: Merge branch 'QE-7.5-RC' into 'master'

     This program is part of the open-source Quantum ESPRESSO suite
     for quantum simulation of materials; please cite
         "P. Giannozzi et al., J. Phys.:Condens. Matter 21 395502 (2009);
         "P. Giannozzi et al., J. Phys.:Condens. Matter 29 465901 (2017);
         "P. Giannozzi et al., J. Chem. Phys. 152 154105 (2020);
          URL http://www.quantum-espresso.org", 
     in publications or presentations arising from this work. More details at
     http://www.quantum-espresso.org/quote

     Parallel version (MPI), running on     1 processors

     MPI processes distributed on     1 nodes
     0 MiB available memory on the printing compute node when the environment starts

     Reading input from pw.in

     Current dimensions of program PWSCF are:
     Max number of different atomic species (ntypx) = 10
     Max number of k-points (npk) =  40000
     Max angular momentum in pseudopotentials (lmaxx) =  4
     Message from routine volume:
     axis vectors are left-handed
     Message from routine setup:
     using ibrav=0 with symmetry is DISCOURAGED, use correct ibrav instead

     Subspace diagonalization in iterative solution of the eigenvalue problem:
     a serial algorithm will be used


     G-vector sticks info
     --------------------
     sticks:   dense  smooth     PW     G-vecs:    dense   smooth      PW
     Sum         859     433    151                16889     5985    1139

     Using Slab Decomposition



     bravais-lattice index     =            0
     lattice parameter (alat)  =       7.2558  a.u.
     unit-cell volume          =     270.1072 (a.u.)^3
     number of atoms/cell      =            2
     number of atomic types    =            1
     number of electrons       =         8.00
     number of Kohn-Sham states=            4
     kinetic-energy cutoff     =      30.0000  Ry
     charge density cutoff     =     240.0000  Ry
     scf convergence threshold =      1.0E-06
     mixing beta               =       0.7000
     number of iterations used =            8  plain     mixing
     Exchange-correlation= PBE
                           (   1   4   3   4   0   0   0)

     celldm(1)=   7.255773  celldm(2)=   0.000000  celldm(3)=   0.000000
     celldm(4)=   0.000000  celldm(5)=   0.000000  celldm(6)=   0.000000

     crystal axes: (cart. coord. in units of alat)
               a(1) = (   0.707107   0.707107   0.000000 )  
               a(2) = (   0.707107   0.000000   0.707107 )  
               a(3) = (   0.000000   0.707107   0.707107 )  

     reciprocal axes: (cart. coord. in units 2 pi/alat)
               b(1) = (  0.707107  0.707107 -0.707107 )  
               b(2) = (  0.707107 -0.707107  0.707107 )  
               b(3) = ( -0.707107  0.707107  0.707107 )  


     PseudoPot. # 1 for Si read from file:
     ./Si.pbe-n-rrkjus_psl.1.0.0.UPF
     MD5 check sum: 0b0bb1205258b0d07b9f9672cf965d36
     Pseudo is Ultrasoft + core correction, Zval =  4.0
     Generated using "atomic" code by A. Dal Corso  v.5.1
     Using radial grid of 1141 points,  6 beta functions with: 
                l(1) =   0
                l(2) =   0
                l(3) =   1
                l(4) =   1
                l(5) =   2
                l(6) =   2
     Q(r) pseudized with 0 coefficients 


     atomic species   valence    mass     pseudopotential
     Si                4.00    28.08600     Si( 1.00)

     48 Sym. Ops., with inversion, found (24 have fractional translation)



   Cartesian axes

     site n.     atom                  positions (alat units)
         1        Si     tau(   1) = (   0.0000000   0.0000000   0.0000000  )
         2        Si     tau(   2) = (   0.3535534   0.3535534   0.3535534  )

     number of k points=    47
                       cart. coord. in units 2pi/alat
        k(    1) = (   0.0000000   0.0000000   0.0000000), wk =   0.0020000
        k(    2) = (  -0.0707107   0.0707107   0.0707107), wk =   0.0160000
        k(    3) = (  -0.1414214   0.1414214   0.1414214), wk =   0.0160000
        k(    4) = (  -0.2121320   0.2121320   0.2121320), wk =   0.0160000
        k(    5) = (  -0.2828427   0.2828427   0.2828427), wk =   0.0160000
        k(    6) = (   0.3535534  -0.3535534  -0.3535534), wk =   0.0080000
        k(    7) = (   0.0000000  -0.0000000   0.1414214), wk =   0.0120000
        k(    8) = (  -0.0707107   0.0707107   0.2121320), wk =   0.0480000
        k(    9) = (  -0.1414214   0.1414214   0.2828427), wk =   0.0480000
        k(   10) = (  -0.2121320   0.2121320   0.3535534), wk =   0.0480000
        k(   11) = (   0.4242641  -0.4242641  -0.2828427), wk =   0.0480000
        k(   12) = (   0.3535534  -0.3535534  -0.2121320), wk =   0.0480000
        k(   13) = (   0.2828427  -0.2828427  -0.1414214), wk =   0.0480000
        k(   14) = (   0.2121320  -0.2121320  -0.0707107), wk =   0.0480000
        k(   15) = (   0.1414214  -0.1414214   0.0000000), wk =   0.0240000
        k(   16) = (   0.0000000  -0.0000000   0.2828427), wk =   0.0120000
        k(   17) = (  -0.0707107   0.0707107   0.3535534), wk =   0.0480000
        k(   18) = (  -0.1414214   0.1414214   0.4242641), wk =   0.0480000
        k(   19) = (   0.4949747  -0.4949747  -0.2121320), wk =   0.0480000
        k(   20) = (   0.4242641  -0.4242641  -0.1414214), wk =   0.0480000
        k(   21) = (   0.3535534  -0.3535534  -0.0707107), wk =   0.0480000
        k(   22) = (   0.2828427  -0.2828427   0.0000000), wk =   0.0240000
        k(   23) = (  -0.0000000   0.0000000   0.4242641), wk =   0.0120000
        k(   24) = (  -0.0707107   0.0707107   0.4949747), wk =   0.0480000
        k(   25) = (   0.5656854  -0.5656854  -0.1414214), wk =   0.0480000
        k(   26) = (   0.4949747  -0.4949747  -0.0707107), wk =   0.0480000
        k(   27) = (   0.4242641  -0.4242641  -0.0000000), wk =   0.0240000
        k(   28) = (   0.0000000  -0.0000000   0.5656854), wk =   0.0120000
        k(   29) = (   0.6363961  -0.6363961  -0.0707107), wk =   0.0480000
        k(   30) = (   0.5656854  -0.5656854   0.0000000), wk =   0.0240000
        k(   31) = (   0.0000000   0.0000000  -0.7071068), wk =   0.0060000
        k(   32) = (   0.0000000   0.1414214   0.2828427), wk =   0.0480000
        k(   33) = (  -0.0707107   0.2121320   0.3535534), wk =   0.0960000
        k(   34) = (   0.5656854  -0.4242641  -0.2828427), wk =   0.0960000
        k(   35) = (   0.4949747  -0.3535534  -0.2121320), wk =   0.0480000
        k(   36) = (  -0.0000000   0.1414214   0.4242641), wk =   0.0480000
        k(   37) = (   0.6363961  -0.4949747  -0.2121320), wk =   0.0960000
        k(   38) = (   0.5656854  -0.4242641  -0.1414214), wk =   0.0960000
        k(   39) = (   0.4949747  -0.3535534  -0.0707107), wk =   0.0960000
        k(   40) = (   0.4242641  -0.2828427   0.0000000), wk =   0.0480000
        k(   41) = (   0.7071068  -0.5656854  -0.1414214), wk =   0.0480000
        k(   42) = (   0.6363961  -0.4949747  -0.0707107), wk =   0.0960000
        k(   43) = (   0.5656854  -0.4242641   0.0000000), wk =   0.0480000
        k(   44) = (   0.0000000   0.1414214  -0.7071068), wk =   0.0240000
        k(   45) = (   0.7071068  -0.4242641  -0.1414214), wk =   0.0480000
        k(   46) = (   0.6363961  -0.3535534  -0.0707107), wk =   0.0480000
        k(   47) = (   0.0000000   0.2828427  -0.7071068), wk =   0.0240000

     Dense  grid:    16889 G-vectors     FFT dimensions: (  36,  36,  36)

     Smooth grid:     5985 G-vectors     FFT dimensions: (  32,  32,  32)

     Estimated max dynamical RAM per process >      62.44 MB

     Initial potential from superposition of free atoms

     starting charge       7.9989, renormalised to       8.0000
     Starting wfcs are    8 randomized atomic wfcs

     total cpu time spent up to now is        0.3 secs

     Self-consistent Calculation

     iteration #  1     ecut=    30.00 Ry     beta= 0.70
     Davidson diagonalization with overlap
     ethr =  1.00E-02,  avg # of iterations =  2.0

     Threshold (ethr) on eigenvalues was too large:
     Diagonalizing with lowered threshold

     Davidson diagonalization with overlap
     ethr =  6.22E-04,  avg # of iterations =  1.4

     total cpu time spent up to now is        0.7 secs

     total energy              =     -22.83684975 Ry
     estimated scf accuracy    <       0.05395646 Ry

     iteration #  2     ecut=    30.00 Ry     beta= 0.70
     Davidson diagonalization with overlap
     ethr =  6.74E-04,  avg # of iterations =  1.0

     total cpu time spent up to now is        0.9 secs

     total energy              =     -22.83867154 Ry
     estimated scf accuracy    <       0.00282453 Ry

     iteration #  3     ecut=    30.00 Ry     beta= 0.70
     Davidson diagonalization with overlap
     ethr =  3.53E-05,  avg # of iterations =  2.8

     total cpu time spent up to now is        1.1 secs

     total energy              =     -22.83946651 Ry
     estimated scf accuracy    <       0.00010984 Ry

     iteration #  4     ecut=    30.00 Ry     beta= 0.70
     Davidson diagonalization with overlap
     ethr =  1.37E-06,  avg # of iterations =  3.7

     total cpu time spent up to now is        1.4 secs

     total energy              =     -22.83953160 Ry
     estimated scf accuracy    <       0.00001601 Ry

     iteration #  5     ecut=    30.00 Ry     beta= 0.70
     Davidson diagonalization with overlap
     ethr =  2.00E-07,  avg # of iterations =  3.3

     total cpu time spent up to now is        1.7 secs

     End of self-consistent calculation

          k = 0.0000 0.0000 0.0000 (   749 PWs)   bands (ev):

    -5.7560   6.2093   6.2093   6.2093

          k =-0.0707 0.0707 0.0707 (   737 PWs)   bands (ev):

    -5.6251   5.0629   6.0105   6.0105

          k =-0.1414 0.1414 0.1414 (   751 PWs)   bands (ev):

    -5.2386   3.1985   5.6289   5.6289

          k =-0.2121 0.2121 0.2121 (   757 PWs)   bands (ev):

    -4.6230   1.4110   5.2934   5.2934

          k =-0.2828 0.2828 0.2828 (   763 PWs)   bands (ev):

    -3.8758  -0.0661   5.0806   5.0806

          k = 0.3536-0.3536-0.3536 (   754 PWs)   bands (ev):

    -3.4241  -0.7645   5.0089   5.0089

          k = 0.0000-0.0000 0.1414 (   737 PWs)   bands (ev):

    -5.5812   5.2706   5.6318   5.6318

          k =-0.0707 0.0707 0.2121 (   752 PWs)   bands (ev):

    -5.2786   3.7563   5.1960   5.3678

          k =-0.1414 0.1414 0.2828 (   752 PWs)   bands (ev):

    -4.7349   1.9943   4.8766   4.9340

          k =-0.2121 0.2121 0.3536 (   750 PWs)   bands (ev):

    -4.0107   0.4199   4.5218   4.7290

          k = 0.4243-0.4243-0.2828 (   755 PWs)   bands (ev):

    -3.3696  -0.6181   4.2309   4.7620

          k = 0.3536-0.3536-0.2121 (   755 PWs)   bands (ev):

    -3.5370  -0.3691   4.1023   4.9620

          k = 0.2828-0.2828-0.1414 (   754 PWs)   bands (ev):

    -4.2663   0.9141   4.1621   5.2973

          k = 0.2121-0.2121-0.0707 (   757 PWs)   bands (ev):

    -4.9424   2.5648   4.4375   5.7043

          k = 0.1414-0.1414 0.0000 (   759 PWs)   bands (ev):

    -5.4085   4.1772   5.0472   6.0322

          k = 0.0000-0.0000 0.2828 (   745 PWs)   bands (ev):

    -5.0605   3.5847   4.7191   4.7191

          k =-0.0707 0.0707 0.3536 (   746 PWs)   bands (ev):

    -4.5946   2.3367   4.2116   4.3705

          k =-0.1414 0.1414 0.4243 (   752 PWs)   bands (ev):

    -3.9191   0.8981   3.5829   4.2106

          k = 0.4950-0.4950-0.2121 (   747 PWs)   bands (ev):

    -3.1876  -0.2873   3.0727   4.2546

          k = 0.4243-0.4243-0.1414 (   747 PWs)   bands (ev):

    -3.0346  -0.4959   2.7737   4.4933

          k = 0.3536-0.3536-0.0707 (   751 PWs)   bands (ev):

    -3.6888   0.4919   2.7528   4.8912

          k = 0.2828-0.2828 0.0000 (   746 PWs)   bands (ev):

    -4.4070   1.7313   3.2059   5.3625

          k =-0.0000 0.0000 0.4243 (   745 PWs)   bands (ev):

    -4.2065   1.7917   3.9771   3.9771

          k =-0.0707 0.0707 0.4950 (   752 PWs)   bands (ev):

    -3.5935   0.7853   3.3504   3.7720

          k = 0.5657-0.5657-0.1414 (   756 PWs)   bands (ev):

    -2.8429  -0.2214   2.5208   3.7787

          k = 0.4950-0.4950-0.0707 (   741 PWs)   bands (ev):

    -2.4233  -0.6977   1.9668   3.9945

          k = 0.4243-0.4243-0.0000 (   752 PWs)   bands (ev):

    -2.9621  -0.1077   1.9407   4.3913

          k = 0.0000-0.0000 0.5657 (   753 PWs)   bands (ev):

    -3.0433   0.0286   3.5117   3.5117

          k = 0.6364-0.6364-0.0707 (   745 PWs)   bands (ev):

    -2.3141  -0.8122   2.9253   3.4631

          k = 0.5657-0.5657 0.0000 (   746 PWs)   bands (ev):

    -1.8379  -1.2329   2.1415   3.6306

          k = 0.0000 0.0000-0.7071 (   740 PWs)   bands (ev):

    -1.6110  -1.6109   3.3541   3.3541

          k = 0.0000 0.1414 0.2828 (   752 PWs)   bands (ev):

    -4.8951   2.8335   4.1260   5.2367

          k =-0.0707 0.2121 0.3536 (   758 PWs)   bands (ev):

    -4.2835   1.4235   3.5373   4.8609

          k = 0.5657-0.4243-0.2828 (   752 PWs)   bands (ev):

    -3.5364   0.0596   3.3061   4.5102

          k = 0.4950-0.3536-0.2121 (   746 PWs)   bands (ev):

    -3.0771  -0.6186   3.2464   4.3721

          k =-0.0000 0.1414 0.4243 (   750 PWs)   bands (ev):

    -4.0568   1.4352   3.3988   4.1215

          k = 0.6364-0.4950-0.2121 (   750 PWs)   bands (ev):

    -3.3363   0.3328   2.7800   3.7923

          k = 0.5657-0.4243-0.1414 (   737 PWs)   bands (ev):

    -2.6858  -0.5307   2.3714   3.7366

          k = 0.4950-0.3536-0.0707 (   749 PWs)   bands (ev):

    -2.8874  -0.2712   2.2205   3.9769

          k = 0.4243-0.2828 0.0000 (   756 PWs)   bands (ev):

    -3.6232   0.6788   2.5210   4.4176

          k = 0.7071-0.5657-0.1414 (   750 PWs)   bands (ev):

    -2.9249  -0.0570   2.9875   3.3140

          k = 0.6364-0.4950-0.0707 (   743 PWs)   bands (ev):

    -2.1862  -0.8320   2.2851   3.2233

          k = 0.5657-0.4243 0.0000 (   740 PWs)   bands (ev):

    -2.1917  -0.8054   1.8688   3.4932

          k = 0.0000 0.1414-0.7071 (   746 PWs)   bands (ev):

    -1.5578  -1.5578   2.9446   2.9446

          k = 0.7071-0.4243-0.1414 (   750 PWs)   bands (ev):

    -2.6039  -0.3551   2.2264   3.2140

          k = 0.6364-0.3536-0.0707 (   740 PWs)   bands (ev):

    -2.0925  -0.8645   2.0685   2.9626

          k = 0.0000 0.2828-0.7071 (   746 PWs)   bands (ev):

    -1.4640  -1.4640   2.4308   2.4308

     highest occupied level (ev):     6.2093

!    total energy              =     -22.83953752 Ry
     estimated scf accuracy    <       0.00000040 Ry

     The total energy is the sum of the following terms:
     one-electron contribution =       5.16839582 Ry
     hartree contribution      =       1.10028268 Ry
     xc contribution           =     -12.30927228 Ry
     ewald contribution        =     -16.79894374 Ry

     convergence has been achieved in   5 iterations

     Writing all to output data dir ./tmp/system.save/ :
     XML data file, charge density, pseudopotentials, collected wavefunctions

     init_run     :      0.26s CPU      0.27s WALL (       1 calls)
     electrons    :      1.36s CPU      1.38s WALL (       1 calls)

     Called by init_run:
     wfcinit      :      0.10s CPU      0.10s WALL (       1 calls)
     potinit      :      0.03s CPU      0.03s WALL (       1 calls)
     hinit0       :      0.11s CPU      0.11s WALL (       1 calls)

     Called by electrons:
     c_bands      :      1.03s CPU      1.04s WALL (       6 calls)
     sum_band     :      0.23s CPU      0.24s WALL (       6 calls)
     v_of_rho     :      0.04s CPU      0.04s WALL (       6 calls)
     newd         :      0.08s CPU      0.08s WALL (       6 calls)
     mix_rho      :      0.00s CPU      0.00s WALL (       6 calls)

     Called by c_bands:
     init_us_2    :      0.04s CPU      0.04s WALL (     611 calls)
     cegterg      :      0.90s CPU      0.91s WALL (     282 calls)

     Called by *egterg:
     cdiaghg      :      0.01s CPU      0.01s WALL (     906 calls)
     h_psi        :      0.87s CPU      0.88s WALL (    1000 calls)
     s_psi        :      0.04s CPU      0.04s WALL (    1000 calls)
     g_psi        :      0.00s CPU      0.00s WALL (     671 calls)

     Called by h_psi:
     h_psi:calbec :      0.05s CPU      0.05s WALL (    1000 calls)
     vloc_psi     :      0.78s CPU      0.79s WALL (    1000 calls)
                                        0.00s GPU  (    1000 calls)
     add_vuspsi   :      0.04s CPU      0.04s WALL (    1000 calls)

     General routines
     calbec       :      0.07s CPU      0.07s WALL (    1282 calls)
     fft          :      0.03s CPU      0.03s WALL (      77 calls)
     ffts         :      0.02s CPU      0.02s WALL (      12 calls)
     fftw         :      0.80s CPU      0.80s WALL (    8348 calls)
     interpolate  :      0.02s CPU      0.02s WALL (       6 calls)

     Parallel routines

     PWSCF        :      1.66s CPU      1.69s WALL


   This run was terminated on:   3:48:11  26Sep2026            

=------------------------------------------------------------------------------=
   JOB DONE.
=------------------------------------------------------------------------------=
