
     Program PWSCF v.7.5 starts on 26Sep2026 at  3:48:13 
        Git branch: HEAD
        Last git commit: 770a0b2d12928a67048e2f3da8d10d057e52179e
        Last git commit date: Tue Aug 19 09:57:12 2025 +0000
        Last git commit subject: Merge branch 'QE-7.5-RC' into 'master'

     This program is part of the open-source Quantum ESPRESSO suite
     for quantum simulation of materials; please cite
         "P. Giannozzi et al., J. Phys.:Condens. Matter 21 395502 (2009);
         "P. Giannozzi et al., J. Phys.:Condens. Matter 29 465901 (2017);
         "P. Giannozzi et al., J. Chem. Phys. 152 154105 (2020);
          URL http://www.quantum-espresso.org", 
     in publications or presentations arising from this work. More details at
     http://www.quantum-espresso.org/quote

     Parallel version (MPI), running on     1 processors

     MPI processes distributed on     1 nodes
     0 MiB available memory on the printing compute node when the environment starts

     Reading input from pw.in

     Current dimensions of program PWSCF are:
     Max number of different atomic species (ntypx) = 10
     Max number of k-points (npk) =  40000
     Max angular momentum in pseudopotentials (lmaxx) =  4
     Message from routine volume:
     axis vectors are left-handed
     Message from routine setup:
     using ibrav=0 with symmetry is DISCOURAGED, use correct ibrav instead

     Subspace diagonalization in iterative solution of the eigenvalue problem:
     a serial algorithm will be used


     G-vector sticks info
     --------------------
     sticks:   dense  smooth     PW     G-vecs:    dense   smooth      PW
     Sum        1159     583    187                26229     9257    1639

     Using Slab Decomposition



     bravais-lattice index     =            0
     lattice parameter (alat)  =       7.2558  a.u.
     unit-cell volume          =     270.1072 (a.u.)^3
     number of atoms/cell      =            2
     number of atomic types    =            1
     number of electrons       =         8.00
     number of Kohn-Sham states=            4
     kinetic-energy cutoff     =      40.0000  Ry
     charge density cutoff     =     320.0000  Ry
     scf convergence threshold =      1.0E-06
     mixing beta               =       0.7000
     number of iterations used =            8  plain     mixing
     Exchange-correlation= PBE
                           (   1   4   3   4   0   0   0)

     celldm(1)=   7.255773  celldm(2)=   0.000000  celldm(3)=   0.000000
     celldm(4)=   0.000000  celldm(5)=   0.000000  celldm(6)=   0.000000

     crystal axes: (cart. coord. in units of alat)
               a(1) = (   0.707107   0.707107   0.000000 )  
               a(2) = (   0.707107   0.000000   0.707107 )  
               a(3) = (   0.000000   0.707107   0.707107 )  

     reciprocal axes: (cart. coord. in units 2 pi/alat)
               b(1) = (  0.707107  0.707107 -0.707107 )  
               b(2) = (  0.707107 -0.707107  0.707107 )  
               b(3) = ( -0.707107  0.707107  0.707107 )  


     PseudoPot. # 1 for Si read from file:
     ./Si.pbe-n-rrkjus_psl.1.0.0.UPF
     MD5 check sum: 0b0bb1205258b0d07b9f9672cf965d36
     Pseudo is Ultrasoft + core correction, Zval =  4.0
     Generated using "atomic" code by A. Dal Corso  v.5.1
     Using radial grid of 1141 points,  6 beta functions with: 
                l(1) =   0
                l(2) =   0
                l(3) =   1
                l(4) =   1
                l(5) =   2
                l(6) =   2
     Q(r) pseudized with 0 coefficients 


     atomic species   valence    mass     pseudopotential
     Si                4.00    28.08600     Si( 1.00)

     48 Sym. Ops., with inversion, found (24 have fractional translation)



   Cartesian axes

     site n.     atom                  positions (alat units)
         1        Si     tau(   1) = (   0.0000000   0.0000000   0.0000000  )
         2        Si     tau(   2) = (   0.3535534   0.3535534   0.3535534  )

     number of k points=    47
                       cart. coord. in units 2pi/alat
        k(    1) = (   0.0000000   0.0000000   0.0000000), wk =   0.0020000
        k(    2) = (  -0.0707107   0.0707107   0.0707107), wk =   0.0160000
        k(    3) = (  -0.1414214   0.1414214   0.1414214), wk =   0.0160000
        k(    4) = (  -0.2121320   0.2121320   0.2121320), wk =   0.0160000
        k(    5) = (  -0.2828427   0.2828427   0.2828427), wk =   0.0160000
        k(    6) = (   0.3535534  -0.3535534  -0.3535534), wk =   0.0080000
        k(    7) = (   0.0000000  -0.0000000   0.1414214), wk =   0.0120000
        k(    8) = (  -0.0707107   0.0707107   0.2121320), wk =   0.0480000
        k(    9) = (  -0.1414214   0.1414214   0.2828427), wk =   0.0480000
        k(   10) = (  -0.2121320   0.2121320   0.3535534), wk =   0.0480000
        k(   11) = (   0.4242641  -0.4242641  -0.2828427), wk =   0.0480000
        k(   12) = (   0.3535534  -0.3535534  -0.2121320), wk =   0.0480000
        k(   13) = (   0.2828427  -0.2828427  -0.1414214), wk =   0.0480000
        k(   14) = (   0.2121320  -0.2121320  -0.0707107), wk =   0.0480000
        k(   15) = (   0.1414214  -0.1414214   0.0000000), wk =   0.0240000
        k(   16) = (   0.0000000  -0.0000000   0.2828427), wk =   0.0120000
        k(   17) = (  -0.0707107   0.0707107   0.3535534), wk =   0.0480000
        k(   18) = (  -0.1414214   0.1414214   0.4242641), wk =   0.0480000
        k(   19) = (   0.4949747  -0.4949747  -0.2121320), wk =   0.0480000
        k(   20) = (   0.4242641  -0.4242641  -0.1414214), wk =   0.0480000
        k(   21) = (   0.3535534  -0.3535534  -0.0707107), wk =   0.0480000
        k(   22) = (   0.2828427  -0.2828427   0.0000000), wk =   0.0240000
        k(   23) = (  -0.0000000   0.0000000   0.4242641), wk =   0.0120000
        k(   24) = (  -0.0707107   0.0707107   0.4949747), wk =   0.0480000
        k(   25) = (   0.5656854  -0.5656854  -0.1414214), wk =   0.0480000
        k(   26) = (   0.4949747  -0.4949747  -0.0707107), wk =   0.0480000
        k(   27) = (   0.4242641  -0.4242641  -0.0000000), wk =   0.0240000
        k(   28) = (   0.0000000  -0.0000000   0.5656854), wk =   0.0120000
        k(   29) = (   0.6363961  -0.6363961  -0.0707107), wk =   0.0480000
        k(   30) = (   0.5656854  -0.5656854   0.0000000), wk =   0.0240000
        k(   31) = (   0.0000000   0.0000000  -0.7071068), wk =   0.0060000
        k(   32) = (   0.0000000   0.1414214   0.2828427), wk =   0.0480000
        k(   33) = (  -0.0707107   0.2121320   0.3535534), wk =   0.0960000
        k(   34) = (   0.5656854  -0.4242641  -0.2828427), wk =   0.0960000
        k(   35) = (   0.4949747  -0.3535534  -0.2121320), wk =   0.0480000
        k(   36) = (  -0.0000000   0.1414214   0.4242641), wk =   0.0480000
        k(   37) = (   0.6363961  -0.4949747  -0.2121320), wk =   0.0960000
        k(   38) = (   0.5656854  -0.4242641  -0.1414214), wk =   0.0960000
        k(   39) = (   0.4949747  -0.3535534  -0.0707107), wk =   0.0960000
        k(   40) = (   0.4242641  -0.2828427   0.0000000), wk =   0.0480000
        k(   41) = (   0.7071068  -0.5656854  -0.1414214), wk =   0.0480000
        k(   42) = (   0.6363961  -0.4949747  -0.0707107), wk =   0.0960000
        k(   43) = (   0.5656854  -0.4242641   0.0000000), wk =   0.0480000
        k(   44) = (   0.0000000   0.1414214  -0.7071068), wk =   0.0240000
        k(   45) = (   0.7071068  -0.4242641  -0.1414214), wk =   0.0480000
        k(   46) = (   0.6363961  -0.3535534  -0.0707107), wk =   0.0480000
        k(   47) = (   0.0000000   0.2828427  -0.7071068), wk =   0.0240000

     Dense  grid:    26229 G-vectors     FFT dimensions: (  48,  48,  48)

     Smooth grid:     9257 G-vectors     FFT dimensions: (  32,  32,  32)

     Estimated max dynamical RAM per process >      99.06 MB

     Initial potential from superposition of free atoms

     starting charge       7.9989, renormalised to       8.0000
     Starting wfcs are    8 randomized atomic wfcs

     total cpu time spent up to now is        0.4 secs

     Self-consistent Calculation

     iteration #  1     ecut=    40.00 Ry     beta= 0.70
     Davidson diagonalization with overlap
     ethr =  1.00E-02,  avg # of iterations =  2.0

     Threshold (ethr) on eigenvalues was too large:
     Diagonalizing with lowered threshold

     Davidson diagonalization with overlap
     ethr =  6.22E-04,  avg # of iterations =  1.4

     total cpu time spent up to now is        0.9 secs

     total energy              =     -22.83697907 Ry
     estimated scf accuracy    <       0.05385145 Ry

     iteration #  2     ecut=    40.00 Ry     beta= 0.70
     Davidson diagonalization with overlap
     ethr =  6.73E-04,  avg # of iterations =  1.0

     total cpu time spent up to now is        1.1 secs

     total energy              =     -22.83880412 Ry
     estimated scf accuracy    <       0.00282678 Ry

     iteration #  3     ecut=    40.00 Ry     beta= 0.70
     Davidson diagonalization with overlap
     ethr =  3.53E-05,  avg # of iterations =  2.7

     total cpu time spent up to now is        1.5 secs

     total energy              =     -22.83958660 Ry
     estimated scf accuracy    <       0.00010345 Ry

     iteration #  4     ecut=    40.00 Ry     beta= 0.70
     Davidson diagonalization with overlap
     ethr =  1.29E-06,  avg # of iterations =  4.1

     total cpu time spent up to now is        1.9 secs

     total energy              =     -22.83965859 Ry
     estimated scf accuracy    <       0.00001118 Ry

     iteration #  5     ecut=    40.00 Ry     beta= 0.70
     Davidson diagonalization with overlap
     ethr =  1.40E-07,  avg # of iterations =  3.4

     total cpu time spent up to now is        2.3 secs

     End of self-consistent calculation

          k = 0.0000 0.0000 0.0000 (  1139 PWs)   bands (ev):

    -5.7564   6.2086   6.2086   6.2086

          k =-0.0707 0.0707 0.0707 (  1179 PWs)   bands (ev):

    -5.6255   5.0622   6.0098   6.0098

          k =-0.1414 0.1414 0.1414 (  1167 PWs)   bands (ev):

    -5.2390   3.1981   5.6283   5.6283

          k =-0.2121 0.2121 0.2121 (  1161 PWs)   bands (ev):

    -4.6234   1.4106   5.2929   5.2929

          k =-0.2828 0.2828 0.2828 (  1161 PWs)   bands (ev):

    -3.8762  -0.0664   5.0802   5.0802

          k = 0.3536-0.3536-0.3536 (  1158 PWs)   bands (ev):

    -3.4245  -0.7649   5.0084   5.0084

          k = 0.0000-0.0000 0.1414 (  1171 PWs)   bands (ev):

    -5.5816   5.2699   5.6311   5.6311

          k =-0.0707 0.0707 0.2121 (  1164 PWs)   bands (ev):

    -5.2790   3.7558   5.1955   5.3673

          k =-0.1414 0.1414 0.2828 (  1159 PWs)   bands (ev):

    -4.7353   1.9939   4.8761   4.9335

          k =-0.2121 0.2121 0.3536 (  1150 PWs)   bands (ev):

    -4.0111   0.4195   4.5213   4.7285

          k = 0.4243-0.4243-0.2828 (  1158 PWs)   bands (ev):

    -3.3701  -0.6184   4.2305   4.7616

          k = 0.3536-0.3536-0.2121 (  1157 PWs)   bands (ev):

    -3.5374  -0.3695   4.1019   4.9616

          k = 0.2828-0.2828-0.1414 (  1144 PWs)   bands (ev):

    -4.2667   0.9138   4.1617   5.2968

          k = 0.2121-0.2121-0.0707 (  1156 PWs)   bands (ev):

    -4.9428   2.5644   4.4371   5.7037

          k = 0.1414-0.1414 0.0000 (  1165 PWs)   bands (ev):

    -5.4089   4.1768   5.0467   6.0316

          k = 0.0000-0.0000 0.2828 (  1170 PWs)   bands (ev):

    -5.0609   3.5841   4.7187   4.7187

          k =-0.0707 0.0707 0.3536 (  1154 PWs)   bands (ev):

    -4.5950   2.3362   4.2112   4.3701

          k =-0.1414 0.1414 0.4243 (  1156 PWs)   bands (ev):

    -3.9195   0.8977   3.5826   4.2102

          k = 0.4950-0.4950-0.2121 (  1158 PWs)   bands (ev):

    -3.1881  -0.2877   3.0723   4.2543

          k = 0.4243-0.4243-0.1414 (  1163 PWs)   bands (ev):

    -3.0350  -0.4963   2.7734   4.4929

          k = 0.3536-0.3536-0.0707 (  1150 PWs)   bands (ev):

    -3.6892   0.4916   2.7525   4.8908

          k = 0.2828-0.2828 0.0000 (  1151 PWs)   bands (ev):

    -4.4074   1.7309   3.2056   5.3619

          k =-0.0000 0.0000 0.4243 (  1146 PWs)   bands (ev):

    -4.2069   1.7912   3.9767   3.9767

          k =-0.0707 0.0707 0.4950 (  1149 PWs)   bands (ev):

    -3.5939   0.7849   3.3501   3.7717

          k = 0.5657-0.5657-0.1414 (  1146 PWs)   bands (ev):

    -2.8433  -0.2218   2.5206   3.7784

          k = 0.4950-0.4950-0.0707 (  1150 PWs)   bands (ev):

    -2.4237  -0.6981   1.9666   3.9942

          k = 0.4243-0.4243-0.0000 (  1145 PWs)   bands (ev):

    -2.9625  -0.1081   1.9405   4.3910

          k = 0.0000-0.0000 0.5657 (  1154 PWs)   bands (ev):

    -3.0437   0.0282   3.5114   3.5114

          k = 0.6364-0.6364-0.0707 (  1148 PWs)   bands (ev):

    -2.3145  -0.8126   2.9250   3.4628

          k = 0.5657-0.5657 0.0000 (  1152 PWs)   bands (ev):

    -1.8383  -1.2333   2.1412   3.6302

          k = 0.0000 0.0000-0.7071 (  1162 PWs)   bands (ev):

    -1.6114  -1.6114   3.3538   3.3538

          k = 0.0000 0.1414 0.2828 (  1154 PWs)   bands (ev):

    -4.8955   2.8331   4.1256   5.2362

          k =-0.0707 0.2121 0.3536 (  1150 PWs)   bands (ev):

    -4.2839   1.4232   3.5370   4.8605

          k = 0.5657-0.4243-0.2828 (  1149 PWs)   bands (ev):

    -3.5368   0.0593   3.3057   4.5098

          k = 0.4950-0.3536-0.2121 (  1156 PWs)   bands (ev):

    -3.0775  -0.6189   3.2461   4.3718

          k =-0.0000 0.1414 0.4243 (  1152 PWs)   bands (ev):

    -4.0572   1.4348   3.3985   4.1211

          k = 0.6364-0.4950-0.2121 (  1158 PWs)   bands (ev):

    -3.3367   0.3324   2.7797   3.7920

          k = 0.5657-0.4243-0.1414 (  1158 PWs)   bands (ev):

    -2.6862  -0.5311   2.3711   3.7363

          k = 0.4950-0.3536-0.0707 (  1152 PWs)   bands (ev):

    -2.8878  -0.2716   2.2203   3.9766

          k = 0.4243-0.2828 0.0000 (  1149 PWs)   bands (ev):

    -3.6236   0.6784   2.5208   4.4173

          k = 0.7071-0.5657-0.1414 (  1162 PWs)   bands (ev):

    -2.9253  -0.0575   2.9872   3.3137

          k = 0.6364-0.4950-0.0707 (  1153 PWs)   bands (ev):

    -2.1867  -0.8324   2.2848   3.2230

          k = 0.5657-0.4243 0.0000 (  1153 PWs)   bands (ev):

    -2.1922  -0.8058   1.8686   3.4929

          k = 0.0000 0.1414-0.7071 (  1156 PWs)   bands (ev):

    -1.5582  -1.5582   2.9443   2.9443

          k = 0.7071-0.4243-0.1414 (  1151 PWs)   bands (ev):

    -2.6043  -0.3555   2.2262   3.2138

          k = 0.6364-0.3536-0.0707 (  1162 PWs)   bands (ev):

    -2.0929  -0.8649   2.0683   2.9624

          k = 0.0000 0.2828-0.7071 (  1154 PWs)   bands (ev):

    -1.4644  -1.4644   2.4306   2.4306

     highest occupied level (ev):     6.2086

!    total energy              =     -22.83966348 Ry
     estimated scf accuracy    <       0.00000037 Ry

     The total energy is the sum of the following terms:
     one-electron contribution =       5.16838253 Ry
     hartree contribution      =       1.10025267 Ry
     xc contribution           =     -12.30935495 Ry
     ewald contribution        =     -16.79894373 Ry

     convergence has been achieved in   5 iterations

     Writing all to output data dir ./tmp/system.save/ :
     XML data file, charge density, pseudopotentials, collected wavefunctions

     init_run     :      0.34s CPU      0.35s WALL (       1 calls)
     electrons    :      1.84s CPU      1.91s WALL (       1 calls)

     Called by init_run:
     wfcinit      :      0.11s CPU      0.11s WALL (       1 calls)
     potinit      :      0.04s CPU      0.04s WALL (       1 calls)
     hinit0       :      0.15s CPU      0.16s WALL (       1 calls)

     Called by electrons:
     c_bands      :      1.33s CPU      1.37s WALL (       6 calls)
     sum_band     :      0.32s CPU      0.33s WALL (       6 calls)
     v_of_rho     :      0.09s CPU      0.10s WALL (       6 calls)
     newd         :      0.13s CPU      0.13s WALL (       6 calls)
     mix_rho      :      0.01s CPU      0.01s WALL (       6 calls)

     Called by c_bands:
     init_us_2    :      0.06s CPU      0.06s WALL (     611 calls)
     cegterg      :      1.13s CPU      1.17s WALL (     282 calls)

     Called by *egterg:
     cdiaghg      :      0.01s CPU      0.01s WALL (     923 calls)
     h_psi        :      1.05s CPU      1.09s WALL (    1017 calls)
     s_psi        :      0.05s CPU      0.05s WALL (    1017 calls)
     g_psi        :      0.00s CPU      0.00s WALL (     688 calls)

     Called by h_psi:
     h_psi:calbec :      0.08s CPU      0.09s WALL (    1017 calls)
     vloc_psi     :      0.91s CPU      0.94s WALL (    1017 calls)
                                        0.00s GPU  (    1017 calls)
     add_vuspsi   :      0.06s CPU      0.06s WALL (    1017 calls)

     General routines
     calbec       :      0.11s CPU      0.11s WALL (    1299 calls)
     fft          :      0.08s CPU      0.08s WALL (      77 calls)
     ffts         :      0.02s CPU      0.02s WALL (      12 calls)
     fftw         :      0.93s CPU      0.95s WALL (    8430 calls)
     interpolate  :      0.02s CPU      0.02s WALL (       6 calls)

     Parallel routines

     PWSCF        :      2.22s CPU      2.31s WALL


   This run was terminated on:   3:48:16  26Sep2026            

=------------------------------------------------------------------------------=
   JOB DONE.
=------------------------------------------------------------------------------=
