
     Program PWSCF v.7.5 starts on 26Sep2026 at  3:48: 8 
        Git branch: HEAD
        Last git commit: 770a0b2d12928a67048e2f3da8d10d057e52179e
        Last git commit date: Tue Aug 19 09:57:12 2025 +0000
        Last git commit subject: Merge branch 'QE-7.5-RC' into 'master'

     This program is part of the open-source Quantum ESPRESSO suite
     for quantum simulation of materials; please cite
         "P. Giannozzi et al., J. Phys.:Condens. Matter 21 395502 (2009);
         "P. Giannozzi et al., J. Phys.:Condens. Matter 29 465901 (2017);
         "P. Giannozzi et al., J. Chem. Phys. 152 154105 (2020);
          URL http://www.quantum-espresso.org", 
     in publications or presentations arising from this work. More details at
     http://www.quantum-espresso.org/quote

     Parallel version (MPI), running on     1 processors

     MPI processes distributed on     1 nodes
     0 MiB available memory on the printing compute node when the environment starts

     Reading input from pw.in

     Current dimensions of program PWSCF are:
     Max number of different atomic species (ntypx) = 10
     Max number of k-points (npk) =  40000
     Max angular momentum in pseudopotentials (lmaxx) =  4
     Message from routine volume:
     axis vectors are left-handed
     Message from routine setup:
     using ibrav=0 with symmetry is DISCOURAGED, use correct ibrav instead

     Subspace diagonalization in iterative solution of the eigenvalue problem:
     a serial algorithm will be used


     G-vector sticks info
     --------------------
     sticks:   dense  smooth     PW     G-vecs:    dense   smooth      PW
     Sum         583     295     97                 9257     3287     645

     Using Slab Decomposition



     bravais-lattice index     =            0
     lattice parameter (alat)  =       7.2558  a.u.
     unit-cell volume          =     270.1072 (a.u.)^3
     number of atoms/cell      =            2
     number of atomic types    =            1
     number of electrons       =         8.00
     number of Kohn-Sham states=            4
     kinetic-energy cutoff     =      20.0000  Ry
     charge density cutoff     =     160.0000  Ry
     scf convergence threshold =      1.0E-06
     mixing beta               =       0.7000
     number of iterations used =            8  plain     mixing
     Exchange-correlation= PBE
                           (   1   4   3   4   0   0   0)

     celldm(1)=   7.255773  celldm(2)=   0.000000  celldm(3)=   0.000000
     celldm(4)=   0.000000  celldm(5)=   0.000000  celldm(6)=   0.000000

     crystal axes: (cart. coord. in units of alat)
               a(1) = (   0.707107   0.707107   0.000000 )  
               a(2) = (   0.707107   0.000000   0.707107 )  
               a(3) = (   0.000000   0.707107   0.707107 )  

     reciprocal axes: (cart. coord. in units 2 pi/alat)
               b(1) = (  0.707107  0.707107 -0.707107 )  
               b(2) = (  0.707107 -0.707107  0.707107 )  
               b(3) = ( -0.707107  0.707107  0.707107 )  


     PseudoPot. # 1 for Si read from file:
     ./Si.pbe-n-rrkjus_psl.1.0.0.UPF
     MD5 check sum: 0b0bb1205258b0d07b9f9672cf965d36
     Pseudo is Ultrasoft + core correction, Zval =  4.0
     Generated using "atomic" code by A. Dal Corso  v.5.1
     Using radial grid of 1141 points,  6 beta functions with: 
                l(1) =   0
                l(2) =   0
                l(3) =   1
                l(4) =   1
                l(5) =   2
                l(6) =   2
     Q(r) pseudized with 0 coefficients 


     atomic species   valence    mass     pseudopotential
     Si                4.00    28.08600     Si( 1.00)

     48 Sym. Ops., with inversion, found (24 have fractional translation)



   Cartesian axes

     site n.     atom                  positions (alat units)
         1        Si     tau(   1) = (   0.0000000   0.0000000   0.0000000  )
         2        Si     tau(   2) = (   0.3535534   0.3535534   0.3535534  )

     number of k points=    47
                       cart. coord. in units 2pi/alat
        k(    1) = (   0.0000000   0.0000000   0.0000000), wk =   0.0020000
        k(    2) = (  -0.0707107   0.0707107   0.0707107), wk =   0.0160000
        k(    3) = (  -0.1414214   0.1414214   0.1414214), wk =   0.0160000
        k(    4) = (  -0.2121320   0.2121320   0.2121320), wk =   0.0160000
        k(    5) = (  -0.2828427   0.2828427   0.2828427), wk =   0.0160000
        k(    6) = (   0.3535534  -0.3535534  -0.3535534), wk =   0.0080000
        k(    7) = (   0.0000000  -0.0000000   0.1414214), wk =   0.0120000
        k(    8) = (  -0.0707107   0.0707107   0.2121320), wk =   0.0480000
        k(    9) = (  -0.1414214   0.1414214   0.2828427), wk =   0.0480000
        k(   10) = (  -0.2121320   0.2121320   0.3535534), wk =   0.0480000
        k(   11) = (   0.4242641  -0.4242641  -0.2828427), wk =   0.0480000
        k(   12) = (   0.3535534  -0.3535534  -0.2121320), wk =   0.0480000
        k(   13) = (   0.2828427  -0.2828427  -0.1414214), wk =   0.0480000
        k(   14) = (   0.2121320  -0.2121320  -0.0707107), wk =   0.0480000
        k(   15) = (   0.1414214  -0.1414214   0.0000000), wk =   0.0240000
        k(   16) = (   0.0000000  -0.0000000   0.2828427), wk =   0.0120000
        k(   17) = (  -0.0707107   0.0707107   0.3535534), wk =   0.0480000
        k(   18) = (  -0.1414214   0.1414214   0.4242641), wk =   0.0480000
        k(   19) = (   0.4949747  -0.4949747  -0.2121320), wk =   0.0480000
        k(   20) = (   0.4242641  -0.4242641  -0.1414214), wk =   0.0480000
        k(   21) = (   0.3535534  -0.3535534  -0.0707107), wk =   0.0480000
        k(   22) = (   0.2828427  -0.2828427   0.0000000), wk =   0.0240000
        k(   23) = (  -0.0000000   0.0000000   0.4242641), wk =   0.0120000
        k(   24) = (  -0.0707107   0.0707107   0.4949747), wk =   0.0480000
        k(   25) = (   0.5656854  -0.5656854  -0.1414214), wk =   0.0480000
        k(   26) = (   0.4949747  -0.4949747  -0.0707107), wk =   0.0480000
        k(   27) = (   0.4242641  -0.4242641  -0.0000000), wk =   0.0240000
        k(   28) = (   0.0000000  -0.0000000   0.5656854), wk =   0.0120000
        k(   29) = (   0.6363961  -0.6363961  -0.0707107), wk =   0.0480000
        k(   30) = (   0.5656854  -0.5656854   0.0000000), wk =   0.0240000
        k(   31) = (   0.0000000   0.0000000  -0.7071068), wk =   0.0060000
        k(   32) = (   0.0000000   0.1414214   0.2828427), wk =   0.0480000
        k(   33) = (  -0.0707107   0.2121320   0.3535534), wk =   0.0960000
        k(   34) = (   0.5656854  -0.4242641  -0.2828427), wk =   0.0960000
        k(   35) = (   0.4949747  -0.3535534  -0.2121320), wk =   0.0480000
        k(   36) = (  -0.0000000   0.1414214   0.4242641), wk =   0.0480000
        k(   37) = (   0.6363961  -0.4949747  -0.2121320), wk =   0.0960000
        k(   38) = (   0.5656854  -0.4242641  -0.1414214), wk =   0.0960000
        k(   39) = (   0.4949747  -0.3535534  -0.0707107), wk =   0.0960000
        k(   40) = (   0.4242641  -0.2828427   0.0000000), wk =   0.0480000
        k(   41) = (   0.7071068  -0.5656854  -0.1414214), wk =   0.0480000
        k(   42) = (   0.6363961  -0.4949747  -0.0707107), wk =   0.0960000
        k(   43) = (   0.5656854  -0.4242641   0.0000000), wk =   0.0480000
        k(   44) = (   0.0000000   0.1414214  -0.7071068), wk =   0.0240000
        k(   45) = (   0.7071068  -0.4242641  -0.1414214), wk =   0.0480000
        k(   46) = (   0.6363961  -0.3535534  -0.0707107), wk =   0.0480000
        k(   47) = (   0.0000000   0.2828427  -0.7071068), wk =   0.0240000

     Dense  grid:     9257 G-vectors     FFT dimensions: (  32,  32,  32)

     Smooth grid:     3287 G-vectors     FFT dimensions: (  24,  24,  24)

     Estimated max dynamical RAM per process >      35.04 MB

     Check: negative core charge=   -0.000003

     Initial potential from superposition of free atoms

     starting charge       7.9989, renormalised to       8.0000
     Starting wfcs are    8 randomized atomic wfcs

     total cpu time spent up to now is        0.2 secs

     Self-consistent Calculation

     iteration #  1     ecut=    20.00 Ry     beta= 0.70
     Davidson diagonalization with overlap
     ethr =  1.00E-02,  avg # of iterations =  2.0

     Threshold (ethr) on eigenvalues was too large:
     Diagonalizing with lowered threshold

     Davidson diagonalization with overlap
     ethr =  6.22E-04,  avg # of iterations =  1.5

     total cpu time spent up to now is        0.4 secs

     total energy              =     -22.83506550 Ry
     estimated scf accuracy    <       0.05383863 Ry

     iteration #  2     ecut=    20.00 Ry     beta= 0.70
     Davidson diagonalization with overlap
     ethr =  6.73E-04,  avg # of iterations =  1.0

     total cpu time spent up to now is        0.5 secs

     total energy              =     -22.83692610 Ry
     estimated scf accuracy    <       0.00278286 Ry

     iteration #  3     ecut=    20.00 Ry     beta= 0.70
     Davidson diagonalization with overlap
     ethr =  3.48E-05,  avg # of iterations =  2.7

     total cpu time spent up to now is        0.6 secs

     total energy              =     -22.83768865 Ry
     estimated scf accuracy    <       0.00010453 Ry

     iteration #  4     ecut=    20.00 Ry     beta= 0.70
     Davidson diagonalization with overlap
     ethr =  1.31E-06,  avg # of iterations =  4.0

     total cpu time spent up to now is        0.7 secs

     total energy              =     -22.83775502 Ry
     estimated scf accuracy    <       0.00001203 Ry

     iteration #  5     ecut=    20.00 Ry     beta= 0.70
     Davidson diagonalization with overlap
     ethr =  1.50E-07,  avg # of iterations =  3.6

     total cpu time spent up to now is        0.8 secs

     End of self-consistent calculation

          k = 0.0000 0.0000 0.0000 (   411 PWs)   bands (ev):

    -5.7525   6.2182   6.2182   6.2182

          k =-0.0707 0.0707 0.0707 (   405 PWs)   bands (ev):

    -5.6217   5.0697   6.0186   6.0186

          k =-0.1414 0.1414 0.1414 (   402 PWs)   bands (ev):

    -5.2353   3.2024   5.6350   5.6350

          k =-0.2121 0.2121 0.2121 (   401 PWs)   bands (ev):

    -4.6200   1.4135   5.2986   5.2986

          k =-0.2828 0.2828 0.2828 (   413 PWs)   bands (ev):

    -3.8731  -0.0639   5.0845   5.0845

          k = 0.3536-0.3536-0.3536 (   410 PWs)   bands (ev):

    -3.4212  -0.7626   5.0126   5.0126

          k = 0.0000-0.0000 0.1414 (   399 PWs)   bands (ev):

    -5.5776   5.2780   5.6391   5.6391

          k =-0.0707 0.0707 0.2121 (   406 PWs)   bands (ev):

    -5.2755   3.7608   5.2009   5.3740

          k =-0.1414 0.1414 0.2828 (   403 PWs)   bands (ev):

    -4.7318   1.9976   4.8809   4.9393

          k =-0.2121 0.2121 0.3536 (   411 PWs)   bands (ev):

    -4.0080   0.4221   4.5259   4.7328

          k = 0.4243-0.4243-0.2828 (   407 PWs)   bands (ev):

    -3.3667  -0.6161   4.2347   4.7659

          k = 0.3536-0.3536-0.2121 (   403 PWs)   bands (ev):

    -3.5341  -0.3670   4.1063   4.9663

          k = 0.2828-0.2828-0.1414 (   405 PWs)   bands (ev):

    -4.2634   0.9168   4.1660   5.3023

          k = 0.2121-0.2121-0.0707 (   396 PWs)   bands (ev):

    -4.9392   2.5685   4.4418   5.7108

          k = 0.1414-0.1414 0.0000 (   395 PWs)   bands (ev):

    -5.4051   4.1828   5.0523   6.0401

          k = 0.0000-0.0000 0.2828 (   407 PWs)   bands (ev):

    -5.0575   3.5902   4.7230   4.7230

          k =-0.0707 0.0707 0.3536 (   409 PWs)   bands (ev):

    -4.5917   2.3405   4.2152   4.3736

          k =-0.1414 0.1414 0.4243 (   413 PWs)   bands (ev):

    -3.9163   0.9010   3.5861   4.2135

          k = 0.4950-0.4950-0.2121 (   407 PWs)   bands (ev):

    -3.1848  -0.2849   3.0756   4.2580

          k = 0.4243-0.4243-0.1414 (   404 PWs)   bands (ev):

    -3.0317  -0.4936   2.7765   4.4970

          k = 0.3536-0.3536-0.0707 (   412 PWs)   bands (ev):

    -3.6860   0.4947   2.7554   4.8952

          k = 0.2828-0.2828 0.0000 (   409 PWs)   bands (ev):

    -4.4041   1.7343   3.2086   5.3677

          k =-0.0000 0.0000 0.4243 (   415 PWs)   bands (ev):

    -4.2039   1.7958   3.9798   3.9798

          k =-0.0707 0.0707 0.4950 (   416 PWs)   bands (ev):

    -3.5908   0.7889   3.3528   3.7744

          k = 0.5657-0.5657-0.1414 (   412 PWs)   bands (ev):

    -2.8401  -0.2182   2.5232   3.7812

          k = 0.4950-0.4950-0.0707 (   404 PWs)   bands (ev):

    -2.4204  -0.6949   1.9690   3.9974

          k = 0.4243-0.4243-0.0000 (   407 PWs)   bands (ev):

    -2.9593  -0.1048   1.9429   4.3947

          k = 0.0000-0.0000 0.5657 (   416 PWs)   bands (ev):

    -3.0407   0.0324   3.5139   3.5139

          k = 0.6364-0.6364-0.0707 (   415 PWs)   bands (ev):

    -2.3114  -0.8088   2.9273   3.4652

          k = 0.5657-0.5657 0.0000 (   411 PWs)   bands (ev):

    -1.8346  -1.2299   2.1435   3.6329

          k = 0.0000 0.0000-0.7071 (   412 PWs)   bands (ev):

    -1.6082  -1.6082   3.3561   3.3561

          k = 0.0000 0.1414 0.2828 (   408 PWs)   bands (ev):

    -4.8923   2.8372   4.1292   5.2422

          k =-0.0707 0.2121 0.3536 (   407 PWs)   bands (ev):

    -4.2806   1.4267   3.5403   4.8654

          k = 0.5657-0.4243-0.2828 (   409 PWs)   bands (ev):

    -3.5336   0.0620   3.3094   4.5138

          k = 0.4950-0.3536-0.2121 (   410 PWs)   bands (ev):

    -3.0742  -0.6164   3.2497   4.3754

          k =-0.0000 0.1414 0.4243 (   413 PWs)   bands (ev):

    -4.0540   1.4387   3.4013   4.1244

          k = 0.6364-0.4950-0.2121 (   406 PWs)   bands (ev):

    -3.3335   0.3360   2.7826   3.7952

          k = 0.5657-0.4243-0.1414 (   408 PWs)   bands (ev):

    -2.6830  -0.5281   2.3738   3.7396

          k = 0.4950-0.3536-0.0707 (   408 PWs)   bands (ev):

    -2.8845  -0.2684   2.2229   3.9800

          k = 0.4243-0.2828 0.0000 (   410 PWs)   bands (ev):

    -3.6204   0.6819   2.5234   4.4213

          k = 0.7071-0.5657-0.1414 (   412 PWs)   bands (ev):

    -2.9222  -0.0536   2.9897   3.3164

          k = 0.6364-0.4950-0.0707 (   411 PWs)   bands (ev):

    -2.1835  -0.8288   2.2871   3.2257

          k = 0.5657-0.4243 0.0000 (   410 PWs)   bands (ev):

    -2.1888  -0.8023   1.8707   3.4958

          k = 0.0000 0.1414-0.7071 (   414 PWs)   bands (ev):

    -1.5548  -1.5548   2.9467   2.9467

          k = 0.7071-0.4243-0.1414 (   408 PWs)   bands (ev):

    -2.6011  -0.3519   2.2285   3.2168

          k = 0.6364-0.3536-0.0707 (   404 PWs)   bands (ev):

    -2.0894  -0.8614   2.0706   2.9651

          k = 0.0000 0.2828-0.7071 (   404 PWs)   bands (ev):

    -1.4609  -1.4609   2.4330   2.4330

     highest occupied level (ev):     6.2182

!    total energy              =     -22.83776009 Ry
     estimated scf accuracy    <       0.00000034 Ry

     The total energy is the sum of the following terms:
     one-electron contribution =       5.17085504 Ry
     hartree contribution      =       1.09967008 Ry
     xc contribution           =     -12.30934145 Ry
     ewald contribution        =     -16.79894377 Ry

     convergence has been achieved in   5 iterations

     Writing all to output data dir ./tmp/system.save/ :
     XML data file, charge density, pseudopotentials, collected wavefunctions

     init_run     :      0.17s CPU      0.18s WALL (       1 calls)
     electrons    :      0.62s CPU      0.63s WALL (       1 calls)

     Called by init_run:
     wfcinit      :      0.05s CPU      0.05s WALL (       1 calls)
     potinit      :      0.02s CPU      0.02s WALL (       1 calls)
     hinit0       :      0.10s CPU      0.10s WALL (       1 calls)

     Called by electrons:
     c_bands      :      0.44s CPU      0.45s WALL (       6 calls)
     sum_band     :      0.11s CPU      0.12s WALL (       6 calls)
     v_of_rho     :      0.02s CPU      0.02s WALL (       6 calls)
     newd         :      0.04s CPU      0.04s WALL (       6 calls)
     mix_rho      :      0.00s CPU      0.00s WALL (       6 calls)

     Called by c_bands:
     init_us_2    :      0.02s CPU      0.02s WALL (     611 calls)
     cegterg      :      0.37s CPU      0.38s WALL (     282 calls)

     Called by *egterg:
     cdiaghg      :      0.01s CPU      0.01s WALL (     928 calls)
     h_psi        :      0.34s CPU      0.34s WALL (    1022 calls)
     s_psi        :      0.02s CPU      0.02s WALL (    1022 calls)
     g_psi        :      0.00s CPU      0.00s WALL (     693 calls)

     Called by h_psi:
     h_psi:calbec :      0.03s CPU      0.03s WALL (    1022 calls)
     vloc_psi     :      0.29s CPU      0.30s WALL (    1022 calls)
                                        0.00s GPU  (    1022 calls)
     add_vuspsi   :      0.02s CPU      0.02s WALL (    1022 calls)

     General routines
     calbec       :      0.03s CPU      0.03s WALL (    1304 calls)
     fft          :      0.03s CPU      0.03s WALL (      77 calls)
     ffts         :      0.01s CPU      0.01s WALL (      12 calls)
     fftw         :      0.29s CPU      0.30s WALL (    8376 calls)
     interpolate  :      0.01s CPU      0.01s WALL (       6 calls)

     Parallel routines

     PWSCF        :      0.82s CPU      0.85s WALL


   This run was terminated on:   3:48: 9  26Sep2026            

=------------------------------------------------------------------------------=
   JOB DONE.
=------------------------------------------------------------------------------=
