
     Program PWSCF v.7.5 starts on 26Sep2026 at  3:48: 7 
        Git branch: HEAD
        Last git commit: 770a0b2d12928a67048e2f3da8d10d057e52179e
        Last git commit date: Tue Aug 19 09:57:12 2025 +0000
        Last git commit subject: Merge branch 'QE-7.5-RC' into 'master'

     This program is part of the open-source Quantum ESPRESSO suite
     for quantum simulation of materials; please cite
         "P. Giannozzi et al., J. Phys.:Condens. Matter 21 395502 (2009);
         "P. Giannozzi et al., J. Phys.:Condens. Matter 29 465901 (2017);
         "P. Giannozzi et al., J. Chem. Phys. 152 154105 (2020);
          URL http://www.quantum-espresso.org", 
     in publications or presentations arising from this work. More details at
     http://www.quantum-espresso.org/quote

     Parallel version (MPI), running on     1 processors

     MPI processes distributed on     1 nodes
     0 MiB available memory on the printing compute node when the environment starts

     Reading input from pw.in

     Current dimensions of program PWSCF are:
     Max number of different atomic species (ntypx) = 10
     Max number of k-points (npk) =  40000
     Max angular momentum in pseudopotentials (lmaxx) =  4
     Message from routine volume:
     axis vectors are left-handed
     Message from routine setup:
     using ibrav=0 with symmetry is DISCOURAGED, use correct ibrav instead

     Subspace diagonalization in iterative solution of the eigenvalue problem:
     a serial algorithm will be used


     G-vector sticks info
     --------------------
     sticks:   dense  smooth     PW     G-vecs:    dense   smooth      PW
     Sum         433     211     85                 5985     2109     459

     Using Slab Decomposition



     bravais-lattice index     =            0
     lattice parameter (alat)  =       7.2558  a.u.
     unit-cell volume          =     270.1072 (a.u.)^3
     number of atoms/cell      =            2
     number of atomic types    =            1
     number of electrons       =         8.00
     number of Kohn-Sham states=            4
     kinetic-energy cutoff     =      15.0000  Ry
     charge density cutoff     =     120.0000  Ry
     scf convergence threshold =      1.0E-06
     mixing beta               =       0.7000
     number of iterations used =            8  plain     mixing
     Exchange-correlation= PBE
                           (   1   4   3   4   0   0   0)

     celldm(1)=   7.255773  celldm(2)=   0.000000  celldm(3)=   0.000000
     celldm(4)=   0.000000  celldm(5)=   0.000000  celldm(6)=   0.000000

     crystal axes: (cart. coord. in units of alat)
               a(1) = (   0.707107   0.707107   0.000000 )  
               a(2) = (   0.707107   0.000000   0.707107 )  
               a(3) = (   0.000000   0.707107   0.707107 )  

     reciprocal axes: (cart. coord. in units 2 pi/alat)
               b(1) = (  0.707107  0.707107 -0.707107 )  
               b(2) = (  0.707107 -0.707107  0.707107 )  
               b(3) = ( -0.707107  0.707107  0.707107 )  


     PseudoPot. # 1 for Si read from file:
     ./Si.pbe-n-rrkjus_psl.1.0.0.UPF
     MD5 check sum: 0b0bb1205258b0d07b9f9672cf965d36
     Pseudo is Ultrasoft + core correction, Zval =  4.0
     Generated using "atomic" code by A. Dal Corso  v.5.1
     Using radial grid of 1141 points,  6 beta functions with: 
                l(1) =   0
                l(2) =   0
                l(3) =   1
                l(4) =   1
                l(5) =   2
                l(6) =   2
     Q(r) pseudized with 0 coefficients 


     atomic species   valence    mass     pseudopotential
     Si                4.00    28.08600     Si( 1.00)

     48 Sym. Ops., with inversion, found (24 have fractional translation)



   Cartesian axes

     site n.     atom                  positions (alat units)
         1        Si     tau(   1) = (   0.0000000   0.0000000   0.0000000  )
         2        Si     tau(   2) = (   0.3535534   0.3535534   0.3535534  )

     number of k points=    47
                       cart. coord. in units 2pi/alat
        k(    1) = (   0.0000000   0.0000000   0.0000000), wk =   0.0020000
        k(    2) = (  -0.0707107   0.0707107   0.0707107), wk =   0.0160000
        k(    3) = (  -0.1414214   0.1414214   0.1414214), wk =   0.0160000
        k(    4) = (  -0.2121320   0.2121320   0.2121320), wk =   0.0160000
        k(    5) = (  -0.2828427   0.2828427   0.2828427), wk =   0.0160000
        k(    6) = (   0.3535534  -0.3535534  -0.3535534), wk =   0.0080000
        k(    7) = (   0.0000000  -0.0000000   0.1414214), wk =   0.0120000
        k(    8) = (  -0.0707107   0.0707107   0.2121320), wk =   0.0480000
        k(    9) = (  -0.1414214   0.1414214   0.2828427), wk =   0.0480000
        k(   10) = (  -0.2121320   0.2121320   0.3535534), wk =   0.0480000
        k(   11) = (   0.4242641  -0.4242641  -0.2828427), wk =   0.0480000
        k(   12) = (   0.3535534  -0.3535534  -0.2121320), wk =   0.0480000
        k(   13) = (   0.2828427  -0.2828427  -0.1414214), wk =   0.0480000
        k(   14) = (   0.2121320  -0.2121320  -0.0707107), wk =   0.0480000
        k(   15) = (   0.1414214  -0.1414214   0.0000000), wk =   0.0240000
        k(   16) = (   0.0000000  -0.0000000   0.2828427), wk =   0.0120000
        k(   17) = (  -0.0707107   0.0707107   0.3535534), wk =   0.0480000
        k(   18) = (  -0.1414214   0.1414214   0.4242641), wk =   0.0480000
        k(   19) = (   0.4949747  -0.4949747  -0.2121320), wk =   0.0480000
        k(   20) = (   0.4242641  -0.4242641  -0.1414214), wk =   0.0480000
        k(   21) = (   0.3535534  -0.3535534  -0.0707107), wk =   0.0480000
        k(   22) = (   0.2828427  -0.2828427   0.0000000), wk =   0.0240000
        k(   23) = (  -0.0000000   0.0000000   0.4242641), wk =   0.0120000
        k(   24) = (  -0.0707107   0.0707107   0.4949747), wk =   0.0480000
        k(   25) = (   0.5656854  -0.5656854  -0.1414214), wk =   0.0480000
        k(   26) = (   0.4949747  -0.4949747  -0.0707107), wk =   0.0480000
        k(   27) = (   0.4242641  -0.4242641  -0.0000000), wk =   0.0240000
        k(   28) = (   0.0000000  -0.0000000   0.5656854), wk =   0.0120000
        k(   29) = (   0.6363961  -0.6363961  -0.0707107), wk =   0.0480000
        k(   30) = (   0.5656854  -0.5656854   0.0000000), wk =   0.0240000
        k(   31) = (   0.0000000   0.0000000  -0.7071068), wk =   0.0060000
        k(   32) = (   0.0000000   0.1414214   0.2828427), wk =   0.0480000
        k(   33) = (  -0.0707107   0.2121320   0.3535534), wk =   0.0960000
        k(   34) = (   0.5656854  -0.4242641  -0.2828427), wk =   0.0960000
        k(   35) = (   0.4949747  -0.3535534  -0.2121320), wk =   0.0480000
        k(   36) = (  -0.0000000   0.1414214   0.4242641), wk =   0.0480000
        k(   37) = (   0.6363961  -0.4949747  -0.2121320), wk =   0.0960000
        k(   38) = (   0.5656854  -0.4242641  -0.1414214), wk =   0.0960000
        k(   39) = (   0.4949747  -0.3535534  -0.0707107), wk =   0.0960000
        k(   40) = (   0.4242641  -0.2828427   0.0000000), wk =   0.0480000
        k(   41) = (   0.7071068  -0.5656854  -0.1414214), wk =   0.0480000
        k(   42) = (   0.6363961  -0.4949747  -0.0707107), wk =   0.0960000
        k(   43) = (   0.5656854  -0.4242641   0.0000000), wk =   0.0480000
        k(   44) = (   0.0000000   0.1414214  -0.7071068), wk =   0.0240000
        k(   45) = (   0.7071068  -0.4242641  -0.1414214), wk =   0.0480000
        k(   46) = (   0.6363961  -0.3535534  -0.0707107), wk =   0.0480000
        k(   47) = (   0.0000000   0.2828427  -0.7071068), wk =   0.0240000

     Dense  grid:     5985 G-vectors     FFT dimensions: (  32,  32,  32)

     Smooth grid:     2109 G-vectors     FFT dimensions: (  20,  20,  20)

     Estimated max dynamical RAM per process >      23.68 MB

     Check: negative core charge=   -0.000003

     Initial potential from superposition of free atoms

     starting charge       7.9989, renormalised to       8.0000
     Starting wfcs are    8 randomized atomic wfcs

     total cpu time spent up to now is        0.2 secs

     Self-consistent Calculation

     iteration #  1     ecut=    15.00 Ry     beta= 0.70
     Davidson diagonalization with overlap
     ethr =  1.00E-02,  avg # of iterations =  2.0

     Threshold (ethr) on eigenvalues was too large:
     Diagonalizing with lowered threshold

     Davidson diagonalization with overlap
     ethr =  6.24E-04,  avg # of iterations =  1.4

     total cpu time spent up to now is        0.3 secs

     total energy              =     -22.83228267 Ry
     estimated scf accuracy    <       0.05363208 Ry

     iteration #  2     ecut=    15.00 Ry     beta= 0.70
     Davidson diagonalization with overlap
     ethr =  6.70E-04,  avg # of iterations =  1.0

     total cpu time spent up to now is        0.3 secs

     total energy              =     -22.83417980 Ry
     estimated scf accuracy    <       0.00271978 Ry

     iteration #  3     ecut=    15.00 Ry     beta= 0.70
     Davidson diagonalization with overlap
     ethr =  3.40E-05,  avg # of iterations =  2.7

     total cpu time spent up to now is        0.4 secs

     total energy              =     -22.83488829 Ry
     estimated scf accuracy    <       0.00009894 Ry

     iteration #  4     ecut=    15.00 Ry     beta= 0.70
     Davidson diagonalization with overlap
     ethr =  1.24E-06,  avg # of iterations =  3.7

     total cpu time spent up to now is        0.4 secs

     total energy              =     -22.83494532 Ry
     estimated scf accuracy    <       0.00000946 Ry

     iteration #  5     ecut=    15.00 Ry     beta= 0.70
     Davidson diagonalization with overlap
     ethr =  1.18E-07,  avg # of iterations =  4.0

     total cpu time spent up to now is        0.5 secs

     End of self-consistent calculation

          k = 0.0000 0.0000 0.0000 (   283 PWs)   bands (ev):

    -5.7510   6.2291   6.2291   6.2291

          k =-0.0707 0.0707 0.0707 (   271 PWs)   bands (ev):

    -5.6197   5.0787   6.0303   6.0303

          k =-0.1414 0.1414 0.1414 (   271 PWs)   bands (ev):

    -5.2334   3.2072   5.6452   5.6452

          k =-0.2121 0.2121 0.2121 (   268 PWs)   bands (ev):

    -4.6177   1.4172   5.3065   5.3065

          k =-0.2828 0.2828 0.2828 (   269 PWs)   bands (ev):

    -3.8701  -0.0623   5.0907   5.0907

          k = 0.3536-0.3536-0.3536 (   266 PWs)   bands (ev):

    -3.4173  -0.7619   5.0185   5.0185

          k = 0.0000-0.0000 0.1414 (   267 PWs)   bands (ev):

    -5.5757   5.2892   5.6495   5.6495

          k =-0.0707 0.0707 0.2121 (   273 PWs)   bands (ev):

    -5.2735   3.7665   5.2112   5.3833

          k =-0.1414 0.1414 0.2828 (   269 PWs)   bands (ev):

    -4.7298   2.0014   4.8881   4.9466

          k =-0.2121 0.2121 0.3536 (   266 PWs)   bands (ev):

    -4.0053   0.4245   4.5321   4.7384

          k = 0.4243-0.4243-0.2828 (   261 PWs)   bands (ev):

    -3.3632  -0.6150   4.2404   4.7714

          k = 0.3536-0.3536-0.2121 (   262 PWs)   bands (ev):

    -3.5310  -0.3656   4.1114   4.9721

          k = 0.2828-0.2828-0.1414 (   267 PWs)   bands (ev):

    -4.2609   0.9198   4.1715   5.3096

          k = 0.2121-0.2121-0.0707 (   272 PWs)   bands (ev):

    -4.9373   2.5728   4.4484   5.7200

          k = 0.1414-0.1414 0.0000 (   275 PWs)   bands (ev):

    -5.4033   4.1891   5.0601   6.0513

          k = 0.0000-0.0000 0.2828 (   274 PWs)   bands (ev):

    -5.0554   3.5973   4.7301   4.7301

          k =-0.0707 0.0707 0.3536 (   274 PWs)   bands (ev):

    -4.5898   2.3448   4.2207   4.3793

          k =-0.1414 0.1414 0.4243 (   265 PWs)   bands (ev):

    -3.9140   0.9041   3.5907   4.2190

          k = 0.4950-0.4950-0.2121 (   261 PWs)   bands (ev):

    -3.1818  -0.2831   3.0801   4.2626

          k = 0.4243-0.4243-0.1414 (   259 PWs)   bands (ev):

    -3.0285  -0.4919   2.7803   4.5022

          k = 0.3536-0.3536-0.0707 (   262 PWs)   bands (ev):

    -3.6833   0.4975   2.7589   4.9021

          k = 0.2828-0.2828 0.0000 (   265 PWs)   bands (ev):

    -4.4018   1.7387   3.2129   5.3755

          k =-0.0000 0.0000 0.4243 (   266 PWs)   bands (ev):

    -4.2018   1.8000   3.9838   3.9838

          k =-0.0707 0.0707 0.4950 (   263 PWs)   bands (ev):

    -3.5887   0.7919   3.3567   3.7778

          k = 0.5657-0.5657-0.1414 (   265 PWs)   bands (ev):

    -2.8376  -0.2160   2.5260   3.7843

          k = 0.4950-0.4950-0.0707 (   265 PWs)   bands (ev):

    -2.4175  -0.6928   1.9706   4.0012

          k = 0.4243-0.4243-0.0000 (   266 PWs)   bands (ev):

    -2.9565  -0.1020   1.9445   4.3999

          k = 0.0000-0.0000 0.5657 (   258 PWs)   bands (ev):

    -3.0387   0.0350   3.5164   3.5164

          k = 0.6364-0.6364-0.0707 (   259 PWs)   bands (ev):

    -2.3091  -0.8067   2.9297   3.4676

          k = 0.5657-0.5657 0.0000 (   268 PWs)   bands (ev):

    -1.8322  -1.2279   2.1451   3.6353

          k = 0.0000 0.0000-0.7071 (   254 PWs)   bands (ev):

    -1.6058  -1.6058   3.3581   3.3581

          k = 0.0000 0.1414 0.2828 (   272 PWs)   bands (ev):

    -4.8902   2.8422   4.1351   5.2506

          k =-0.0707 0.2121 0.3536 (   271 PWs)   bands (ev):

    -4.2785   1.4302   3.5449   4.8718

          k = 0.5657-0.4243-0.2828 (   264 PWs)   bands (ev):

    -3.5307   0.0641   3.3133   4.5194

          k = 0.4950-0.3536-0.2121 (   258 PWs)   bands (ev):

    -3.0708  -0.6151   3.2537   4.3813

          k =-0.0000 0.1414 0.4243 (   265 PWs)   bands (ev):

    -4.0519   1.4424   3.4057   4.1300

          k = 0.6364-0.4950-0.2121 (   261 PWs)   bands (ev):

    -3.3311   0.3386   2.7858   3.7997

          k = 0.5657-0.4243-0.1414 (   260 PWs)   bands (ev):

    -2.6799  -0.5260   2.3768   3.7439

          k = 0.4950-0.3536-0.0707 (   267 PWs)   bands (ev):

    -2.8818  -0.2661   2.2250   3.9848

          k = 0.4243-0.2828 0.0000 (   266 PWs)   bands (ev):

    -3.6179   0.6852   2.5262   4.4268

          k = 0.7071-0.5657-0.1414 (   259 PWs)   bands (ev):

    -2.9200  -0.0509   2.9926   3.3200

          k = 0.6364-0.4950-0.0707 (   261 PWs)   bands (ev):

    -2.1808  -0.8264   2.2892   3.2288

          k = 0.5657-0.4243 0.0000 (   266 PWs)   bands (ev):

    -2.1860  -0.8000   1.8724   3.4992

          k = 0.0000 0.1414-0.7071 (   260 PWs)   bands (ev):

    -1.5525  -1.5525   2.9490   2.9490

          k = 0.7071-0.4243-0.1414 (   269 PWs)   bands (ev):

    -2.5986  -0.3494   2.2305   3.2201

          k = 0.6364-0.3536-0.0707 (   264 PWs)   bands (ev):

    -2.0867  -0.8591   2.0727   2.9684

          k = 0.0000 0.2828-0.7071 (   262 PWs)   bands (ev):

    -1.4584  -1.4584   2.4352   2.4352

     highest occupied level (ev):     6.2291

!    total energy              =     -22.83495011 Ry
     estimated scf accuracy    <       0.00000032 Ry

     The total energy is the sum of the following terms:
     one-electron contribution =       5.17468153 Ry
     hartree contribution      =       1.09905924 Ry
     xc contribution           =     -12.30974711 Ry
     ewald contribution        =     -16.79894377 Ry

     convergence has been achieved in   5 iterations

     Writing all to output data dir ./tmp/system.save/ :
     XML data file, charge density, pseudopotentials, collected wavefunctions

     init_run     :      0.14s CPU      0.14s WALL (       1 calls)
     electrons    :      0.33s CPU      0.35s WALL (       1 calls)

     Called by init_run:
     wfcinit      :      0.02s CPU      0.02s WALL (       1 calls)
     potinit      :      0.01s CPU      0.01s WALL (       1 calls)
     hinit0       :      0.09s CPU      0.09s WALL (       1 calls)

     Called by electrons:
     c_bands      :      0.22s CPU      0.23s WALL (       6 calls)
     sum_band     :      0.06s CPU      0.06s WALL (       6 calls)
     v_of_rho     :      0.02s CPU      0.02s WALL (       6 calls)
     newd         :      0.03s CPU      0.03s WALL (       6 calls)
     mix_rho      :      0.00s CPU      0.00s WALL (       6 calls)

     Called by c_bands:
     init_us_2    :      0.02s CPU      0.02s WALL (     611 calls)
     cegterg      :      0.18s CPU      0.19s WALL (     282 calls)

     Called by *egterg:
     cdiaghg      :      0.01s CPU      0.01s WALL (     928 calls)
     h_psi        :      0.14s CPU      0.15s WALL (    1022 calls)
     s_psi        :      0.01s CPU      0.01s WALL (    1022 calls)
     g_psi        :      0.00s CPU      0.00s WALL (     693 calls)

     Called by h_psi:
     h_psi:calbec :      0.02s CPU      0.02s WALL (    1022 calls)
     vloc_psi     :      0.11s CPU      0.12s WALL (    1022 calls)
                                        0.00s GPU  (    1022 calls)
     add_vuspsi   :      0.01s CPU      0.02s WALL (    1022 calls)

     General routines
     calbec       :      0.02s CPU      0.02s WALL (    1304 calls)
     fft          :      0.03s CPU      0.03s WALL (      77 calls)
     ffts         :      0.01s CPU      0.01s WALL (      12 calls)
     fftw         :      0.11s CPU      0.11s WALL (    8442 calls)
     interpolate  :      0.01s CPU      0.01s WALL (       6 calls)

     Parallel routines

     PWSCF        :      0.50s CPU      0.52s WALL


   This run was terminated on:   3:48: 8  26Sep2026            

=------------------------------------------------------------------------------=
   JOB DONE.
=------------------------------------------------------------------------------=
