
     Program PWSCF v.7.5 starts on 26Sep2026 at  3:48: 1 
        Git branch: HEAD
        Last git commit: 770a0b2d12928a67048e2f3da8d10d057e52179e
        Last git commit date: Tue Aug 19 09:57:12 2025 +0000
        Last git commit subject: Merge branch 'QE-7.5-RC' into 'master'

     This program is part of the open-source Quantum ESPRESSO suite
     for quantum simulation of materials; please cite
         "P. Giannozzi et al., J. Phys.:Condens. Matter 21 395502 (2009);
         "P. Giannozzi et al., J. Phys.:Condens. Matter 29 465901 (2017);
         "P. Giannozzi et al., J. Chem. Phys. 152 154105 (2020);
          URL http://www.quantum-espresso.org", 
     in publications or presentations arising from this work. More details at
     http://www.quantum-espresso.org/quote

     Parallel version (MPI), running on     1 processors

     MPI processes distributed on     1 nodes
     0 MiB available memory on the printing compute node when the environment starts

     Reading input from pw.in

     Current dimensions of program PWSCF are:
     Max number of different atomic species (ntypx) = 10
     Max number of k-points (npk) =  40000
     Max angular momentum in pseudopotentials (lmaxx) =  4
     Message from routine volume:
     axis vectors are left-handed
     Message from routine setup:
     using ibrav=0 with symmetry is DISCOURAGED, use correct ibrav instead

     Subspace diagonalization in iterative solution of the eigenvalue problem:
     a serial algorithm will be used


     G-vector sticks info
     --------------------
     sticks:   dense  smooth     PW     G-vecs:    dense   smooth      PW
     Sum         583     295     97                 9257     3287     645

     Using Slab Decomposition



     bravais-lattice index     =            0
     lattice parameter (alat)  =       7.2558  a.u.
     unit-cell volume          =     270.1072 (a.u.)^3
     number of atoms/cell      =            2
     number of atomic types    =            1
     number of electrons       =         8.00
     number of Kohn-Sham states=            4
     kinetic-energy cutoff     =      20.0000  Ry
     charge density cutoff     =     160.0000  Ry
     scf convergence threshold =      1.0E-06
     mixing beta               =       0.7000
     number of iterations used =            8  plain     mixing
     Exchange-correlation= PBE
                           (   1   4   3   4   0   0   0)

     celldm(1)=   7.255773  celldm(2)=   0.000000  celldm(3)=   0.000000
     celldm(4)=   0.000000  celldm(5)=   0.000000  celldm(6)=   0.000000

     crystal axes: (cart. coord. in units of alat)
               a(1) = (   0.707107   0.707107   0.000000 )  
               a(2) = (   0.707107   0.000000   0.707107 )  
               a(3) = (   0.000000   0.707107   0.707107 )  

     reciprocal axes: (cart. coord. in units 2 pi/alat)
               b(1) = (  0.707107  0.707107 -0.707107 )  
               b(2) = (  0.707107 -0.707107  0.707107 )  
               b(3) = ( -0.707107  0.707107  0.707107 )  


     PseudoPot. # 1 for Si read from file:
     ./Si.pbe-n-rrkjus_psl.1.0.0.UPF
     MD5 check sum: 0b0bb1205258b0d07b9f9672cf965d36
     Pseudo is Ultrasoft + core correction, Zval =  4.0
     Generated using "atomic" code by A. Dal Corso  v.5.1
     Using radial grid of 1141 points,  6 beta functions with: 
                l(1) =   0
                l(2) =   0
                l(3) =   1
                l(4) =   1
                l(5) =   2
                l(6) =   2
     Q(r) pseudized with 0 coefficients 


     atomic species   valence    mass     pseudopotential
     Si                4.00    28.08600     Si( 1.00)

     48 Sym. Ops., with inversion, found (24 have fractional translation)



   Cartesian axes

     site n.     atom                  positions (alat units)
         1        Si     tau(   1) = (   0.0000000   0.0000000   0.0000000  )
         2        Si     tau(   2) = (   0.3535534   0.3535534   0.3535534  )

     number of k points=    29
                       cart. coord. in units 2pi/alat
        k(    1) = (   0.0000000   0.0000000   0.0000000), wk =   0.0039062
        k(    2) = (  -0.0883883   0.0883883   0.0883883), wk =   0.0312500
        k(    3) = (  -0.1767767   0.1767767   0.1767767), wk =   0.0312500
        k(    4) = (  -0.2651650   0.2651650   0.2651650), wk =   0.0312500
        k(    5) = (   0.3535534  -0.3535534  -0.3535534), wk =   0.0156250
        k(    6) = (   0.0000000   0.0000000   0.1767767), wk =   0.0234375
        k(    7) = (  -0.0883883   0.0883883   0.2651650), wk =   0.0937500
        k(    8) = (  -0.1767767   0.1767767   0.3535534), wk =   0.0937500
        k(    9) = (   0.4419417  -0.4419417  -0.2651650), wk =   0.0937500
        k(   10) = (   0.3535534  -0.3535534  -0.1767767), wk =   0.0937500
        k(   11) = (   0.2651650  -0.2651650  -0.0883883), wk =   0.0937500
        k(   12) = (   0.1767767  -0.1767767   0.0000000), wk =   0.0468750
        k(   13) = (   0.0000000   0.0000000   0.3535534), wk =   0.0234375
        k(   14) = (  -0.0883883   0.0883883   0.4419417), wk =   0.0937500
        k(   15) = (   0.5303301  -0.5303301  -0.1767767), wk =   0.0937500
        k(   16) = (   0.4419417  -0.4419417  -0.0883883), wk =   0.0937500
        k(   17) = (   0.3535534  -0.3535534   0.0000000), wk =   0.0468750
        k(   18) = (   0.0000000  -0.0000000   0.5303301), wk =   0.0234375
        k(   19) = (   0.6187184  -0.6187184  -0.0883883), wk =   0.0937500
        k(   20) = (   0.5303301  -0.5303301   0.0000000), wk =   0.0468750
        k(   21) = (   0.0000000   0.0000000  -0.7071068), wk =   0.0117188
        k(   22) = (   0.0000000   0.1767767   0.3535534), wk =   0.0937500
        k(   23) = (   0.6187184  -0.4419417  -0.2651650), wk =   0.1875000
        k(   24) = (   0.5303301  -0.3535534  -0.1767767), wk =   0.0937500
        k(   25) = (   0.7071068  -0.5303301  -0.1767767), wk =   0.0937500
        k(   26) = (   0.6187184  -0.4419417  -0.0883883), wk =   0.1875000
        k(   27) = (   0.5303301  -0.3535534   0.0000000), wk =   0.0937500
        k(   28) = (  -0.0000000   0.1767767  -0.7071068), wk =   0.0468750
        k(   29) = (   0.0000000   0.3535534  -0.7071068), wk =   0.0234375

     Dense  grid:     9257 G-vectors     FFT dimensions: (  32,  32,  32)

     Smooth grid:     3287 G-vectors     FFT dimensions: (  24,  24,  24)

     Estimated max dynamical RAM per process >      34.60 MB

     Check: negative core charge=   -0.000003

     Initial potential from superposition of free atoms

     starting charge       7.9989, renormalised to       8.0000
     Starting wfcs are    8 randomized atomic wfcs

     total cpu time spent up to now is        0.2 secs

     Self-consistent Calculation

     iteration #  1     ecut=    20.00 Ry     beta= 0.70
     Davidson diagonalization with overlap
     ethr =  1.00E-02,  avg # of iterations =  2.0

     Threshold (ethr) on eigenvalues was too large:
     Diagonalizing with lowered threshold

     Davidson diagonalization with overlap
     ethr =  6.22E-04,  avg # of iterations =  1.6

     total cpu time spent up to now is        0.3 secs

     total energy              =     -22.83488410 Ry
     estimated scf accuracy    <       0.05394856 Ry

     iteration #  2     ecut=    20.00 Ry     beta= 0.70
     Davidson diagonalization with overlap
     ethr =  6.74E-04,  avg # of iterations =  1.0

     total cpu time spent up to now is        0.4 secs

     total energy              =     -22.83672495 Ry
     estimated scf accuracy    <       0.00279088 Ry

     iteration #  3     ecut=    20.00 Ry     beta= 0.70
     Davidson diagonalization with overlap
     ethr =  3.49E-05,  avg # of iterations =  2.8

     total cpu time spent up to now is        0.5 secs

     total energy              =     -22.83746279 Ry
     estimated scf accuracy    <       0.00010206 Ry

     iteration #  4     ecut=    20.00 Ry     beta= 0.70
     Davidson diagonalization with overlap
     ethr =  1.28E-06,  avg # of iterations =  3.8

     total cpu time spent up to now is        0.5 secs

     total energy              =     -22.83752222 Ry
     estimated scf accuracy    <       0.00001132 Ry

     iteration #  5     ecut=    20.00 Ry     beta= 0.70
     Davidson diagonalization with overlap
     ethr =  1.42E-07,  avg # of iterations =  3.7

     total cpu time spent up to now is        0.6 secs

     End of self-consistent calculation

          k = 0.0000 0.0000 0.0000 (   411 PWs)   bands (ev):

    -5.7514   6.2197   6.2197   6.2197

          k =-0.0884 0.0884 0.0884 (   408 PWs)   bands (ev):

    -5.5474   4.6155   5.9290   5.9290

          k =-0.1768 0.1768 0.1768 (   401 PWs)   bands (ev):

    -4.9517   2.2844   5.4553   5.4553

          k =-0.2652 0.2652 0.2652 (   407 PWs)   bands (ev):

    -4.0582   0.2619   5.1268   5.1268

          k = 0.3536-0.3536-0.3536 (   410 PWs)   bands (ev):

    -3.4199  -0.7615   5.0139   5.0139

          k = 0.0000 0.0000 0.1768 (   399 PWs)   bands (ev):

    -5.4785   4.8832   5.4086   5.4086

          k =-0.0884 0.0884 0.2652 (   400 PWs)   bands (ev):

    -5.0100   2.9883   4.8948   4.9721

          k =-0.1768 0.1768 0.3536 (   397 PWs)   bands (ev):

    -4.1950   0.9255   4.3794   4.6259

          k = 0.4419-0.4419-0.2652 (   405 PWs)   bands (ev):

    -3.3332  -0.5396   3.9324   4.6501

          k = 0.3536-0.3536-0.1768 (   406 PWs)   bands (ev):

    -3.5781  -0.1686   3.7503   4.9475

          k = 0.2652-0.2652-0.0884 (   407 PWs)   bands (ev):

    -4.5016   1.5851   3.9008   5.4408

          k = 0.1768-0.1768 0.0000 (   399 PWs)   bands (ev):

    -5.2113   3.5292   4.5843   5.9247

          k = 0.0000 0.0000 0.3536 (   415 PWs)   bands (ev):

    -4.6700   2.6965   4.3213   4.3213

          k =-0.0884 0.0884 0.4419 (   410 PWs)   bands (ev):

    -3.9597   1.2711   3.5402   4.0026

          k = 0.5303-0.5303-0.1768 (   412 PWs)   bands (ev):

    -3.0335  -0.1726   2.6758   4.0058

          k = 0.4419-0.4419-0.0884 (   408 PWs)   bands (ev):

    -2.8290  -0.4315   2.2169   4.3249

          k = 0.3536-0.3536 0.0000 (   407 PWs)   bands (ev):

    -3.7078   0.7304   2.4569   4.8855

          k = 0.0000-0.0000 0.5303 (   416 PWs)   bands (ev):

    -3.3573   0.4667   3.6033   3.6033

          k = 0.6187-0.6187-0.0884 (   415 PWs)   bands (ev):

    -2.4598  -0.6193   2.7735   3.5269

          k = 0.5303-0.5303 0.0000 (   409 PWs)   bands (ev):

    -2.0203  -1.0165   1.9067   3.7853

          k = 0.0000 0.0000-0.7071 (   412 PWs)   bands (ev):

    -1.6069  -1.6069   3.3572   3.3572

          k = 0.0000 0.1768 0.3536 (   410 PWs)   bands (ev):

    -4.4224   1.9223   3.4976   4.7851

          k = 0.6187-0.4419-0.2652 (   411 PWs)   bands (ev):

    -3.5339   0.3687   2.8893   4.2823

          k = 0.5303-0.3536-0.1768 (   414 PWs)   bands (ev):

    -2.8811  -0.5775   2.7605   4.0521

          k = 0.7071-0.5303-0.1768 (   410 PWs)   bands (ev):

    -3.1586   0.2471   2.8475   3.4511

          k = 0.6187-0.4419-0.0884 (   406 PWs)   bands (ev):

    -2.2832  -0.7216   2.1487   3.2502

          k = 0.5303-0.3536 0.0000 (   407 PWs)   bands (ev):

    -2.6340  -0.3583   1.9816   3.6268

          k =-0.0000 0.1768-0.7071 (   412 PWs)   bands (ev):

    -1.5286  -1.5286   2.7927   2.7927

          k = 0.0000 0.3536-0.7071 (   412 PWs)   bands (ev):

    -1.4426  -1.4426   2.3563   2.3563

     highest occupied level (ev):     6.2197

!    total energy              =     -22.83752769 Ry
     estimated scf accuracy    <       0.00000047 Ry

     The total energy is the sum of the following terms:
     one-electron contribution =       5.17076339 Ry
     hartree contribution      =       1.10029322 Ry
     xc contribution           =     -12.30964053 Ry
     ewald contribution        =     -16.79894377 Ry

     convergence has been achieved in   5 iterations

     Writing all to output data dir ./tmp/system.save/ :
     XML data file, charge density, pseudopotentials, collected wavefunctions

     init_run     :      0.16s CPU      0.16s WALL (       1 calls)
     electrons    :      0.42s CPU      0.43s WALL (       1 calls)

     Called by init_run:
     wfcinit      :      0.03s CPU      0.03s WALL (       1 calls)
     potinit      :      0.02s CPU      0.02s WALL (       1 calls)
     hinit0       :      0.10s CPU      0.10s WALL (       1 calls)

     Called by electrons:
     c_bands      :      0.28s CPU      0.28s WALL (       6 calls)
     sum_band     :      0.09s CPU      0.09s WALL (       6 calls)
     v_of_rho     :      0.02s CPU      0.02s WALL (       6 calls)
     newd         :      0.04s CPU      0.04s WALL (       6 calls)
     mix_rho      :      0.00s CPU      0.00s WALL (       6 calls)

     Called by c_bands:
     init_us_2    :      0.01s CPU      0.01s WALL (     377 calls)
     cegterg      :      0.23s CPU      0.24s WALL (     174 calls)

     Called by *egterg:
     cdiaghg      :      0.01s CPU      0.01s WALL (     575 calls)
     h_psi        :      0.21s CPU      0.22s WALL (     633 calls)
     s_psi        :      0.01s CPU      0.01s WALL (     633 calls)
     g_psi        :      0.00s CPU      0.00s WALL (     430 calls)

     Called by h_psi:
     h_psi:calbec :      0.02s CPU      0.02s WALL (     633 calls)
     vloc_psi     :      0.18s CPU      0.19s WALL (     633 calls)
                                        0.00s GPU  (     633 calls)
     add_vuspsi   :      0.01s CPU      0.01s WALL (     633 calls)

     General routines
     calbec       :      0.02s CPU      0.02s WALL (     807 calls)
     fft          :      0.03s CPU      0.03s WALL (      77 calls)
     ffts         :      0.01s CPU      0.01s WALL (      12 calls)
     fftw         :      0.19s CPU      0.19s WALL (    5176 calls)
     interpolate  :      0.01s CPU      0.01s WALL (       6 calls)

     Parallel routines

     PWSCF        :      0.61s CPU      0.63s WALL


   This run was terminated on:   3:48: 2  26Sep2026            

=------------------------------------------------------------------------------=
   JOB DONE.
=------------------------------------------------------------------------------=
