
     Program PWSCF v.7.5 starts on 26Sep2026 at  3:48: 0 
        Git branch: HEAD
        Last git commit: 770a0b2d12928a67048e2f3da8d10d057e52179e
        Last git commit date: Tue Aug 19 09:57:12 2025 +0000
        Last git commit subject: Merge branch 'QE-7.5-RC' into 'master'

     This program is part of the open-source Quantum ESPRESSO suite
     for quantum simulation of materials; please cite
         "P. Giannozzi et al., J. Phys.:Condens. Matter 21 395502 (2009);
         "P. Giannozzi et al., J. Phys.:Condens. Matter 29 465901 (2017);
         "P. Giannozzi et al., J. Chem. Phys. 152 154105 (2020);
          URL http://www.quantum-espresso.org", 
     in publications or presentations arising from this work. More details at
     http://www.quantum-espresso.org/quote

     Parallel version (MPI), running on     1 processors

     MPI processes distributed on     1 nodes
     0 MiB available memory on the printing compute node when the environment starts

     Reading input from pw.in

     Current dimensions of program PWSCF are:
     Max number of different atomic species (ntypx) = 10
     Max number of k-points (npk) =  40000
     Max angular momentum in pseudopotentials (lmaxx) =  4
     Message from routine volume:
     axis vectors are left-handed
     Message from routine setup:
     using ibrav=0 with symmetry is DISCOURAGED, use correct ibrav instead

     Subspace diagonalization in iterative solution of the eigenvalue problem:
     a serial algorithm will be used


     G-vector sticks info
     --------------------
     sticks:   dense  smooth     PW     G-vecs:    dense   smooth      PW
     Sum         433     211     85                 5985     2109     459

     Using Slab Decomposition



     bravais-lattice index     =            0
     lattice parameter (alat)  =       7.2558  a.u.
     unit-cell volume          =     270.1072 (a.u.)^3
     number of atoms/cell      =            2
     number of atomic types    =            1
     number of electrons       =         8.00
     number of Kohn-Sham states=            4
     kinetic-energy cutoff     =      15.0000  Ry
     charge density cutoff     =     120.0000  Ry
     scf convergence threshold =      1.0E-06
     mixing beta               =       0.7000
     number of iterations used =            8  plain     mixing
     Exchange-correlation= PBE
                           (   1   4   3   4   0   0   0)

     celldm(1)=   7.255773  celldm(2)=   0.000000  celldm(3)=   0.000000
     celldm(4)=   0.000000  celldm(5)=   0.000000  celldm(6)=   0.000000

     crystal axes: (cart. coord. in units of alat)
               a(1) = (   0.707107   0.707107   0.000000 )  
               a(2) = (   0.707107   0.000000   0.707107 )  
               a(3) = (   0.000000   0.707107   0.707107 )  

     reciprocal axes: (cart. coord. in units 2 pi/alat)
               b(1) = (  0.707107  0.707107 -0.707107 )  
               b(2) = (  0.707107 -0.707107  0.707107 )  
               b(3) = ( -0.707107  0.707107  0.707107 )  


     PseudoPot. # 1 for Si read from file:
     ./Si.pbe-n-rrkjus_psl.1.0.0.UPF
     MD5 check sum: 0b0bb1205258b0d07b9f9672cf965d36
     Pseudo is Ultrasoft + core correction, Zval =  4.0
     Generated using "atomic" code by A. Dal Corso  v.5.1
     Using radial grid of 1141 points,  6 beta functions with: 
                l(1) =   0
                l(2) =   0
                l(3) =   1
                l(4) =   1
                l(5) =   2
                l(6) =   2
     Q(r) pseudized with 0 coefficients 


     atomic species   valence    mass     pseudopotential
     Si                4.00    28.08600     Si( 1.00)

     48 Sym. Ops., with inversion, found (24 have fractional translation)



   Cartesian axes

     site n.     atom                  positions (alat units)
         1        Si     tau(   1) = (   0.0000000   0.0000000   0.0000000  )
         2        Si     tau(   2) = (   0.3535534   0.3535534   0.3535534  )

     number of k points=    29
                       cart. coord. in units 2pi/alat
        k(    1) = (   0.0000000   0.0000000   0.0000000), wk =   0.0039062
        k(    2) = (  -0.0883883   0.0883883   0.0883883), wk =   0.0312500
        k(    3) = (  -0.1767767   0.1767767   0.1767767), wk =   0.0312500
        k(    4) = (  -0.2651650   0.2651650   0.2651650), wk =   0.0312500
        k(    5) = (   0.3535534  -0.3535534  -0.3535534), wk =   0.0156250
        k(    6) = (   0.0000000   0.0000000   0.1767767), wk =   0.0234375
        k(    7) = (  -0.0883883   0.0883883   0.2651650), wk =   0.0937500
        k(    8) = (  -0.1767767   0.1767767   0.3535534), wk =   0.0937500
        k(    9) = (   0.4419417  -0.4419417  -0.2651650), wk =   0.0937500
        k(   10) = (   0.3535534  -0.3535534  -0.1767767), wk =   0.0937500
        k(   11) = (   0.2651650  -0.2651650  -0.0883883), wk =   0.0937500
        k(   12) = (   0.1767767  -0.1767767   0.0000000), wk =   0.0468750
        k(   13) = (   0.0000000   0.0000000   0.3535534), wk =   0.0234375
        k(   14) = (  -0.0883883   0.0883883   0.4419417), wk =   0.0937500
        k(   15) = (   0.5303301  -0.5303301  -0.1767767), wk =   0.0937500
        k(   16) = (   0.4419417  -0.4419417  -0.0883883), wk =   0.0937500
        k(   17) = (   0.3535534  -0.3535534   0.0000000), wk =   0.0468750
        k(   18) = (   0.0000000  -0.0000000   0.5303301), wk =   0.0234375
        k(   19) = (   0.6187184  -0.6187184  -0.0883883), wk =   0.0937500
        k(   20) = (   0.5303301  -0.5303301   0.0000000), wk =   0.0468750
        k(   21) = (   0.0000000   0.0000000  -0.7071068), wk =   0.0117188
        k(   22) = (   0.0000000   0.1767767   0.3535534), wk =   0.0937500
        k(   23) = (   0.6187184  -0.4419417  -0.2651650), wk =   0.1875000
        k(   24) = (   0.5303301  -0.3535534  -0.1767767), wk =   0.0937500
        k(   25) = (   0.7071068  -0.5303301  -0.1767767), wk =   0.0937500
        k(   26) = (   0.6187184  -0.4419417  -0.0883883), wk =   0.1875000
        k(   27) = (   0.5303301  -0.3535534   0.0000000), wk =   0.0937500
        k(   28) = (  -0.0000000   0.1767767  -0.7071068), wk =   0.0468750
        k(   29) = (   0.0000000   0.3535534  -0.7071068), wk =   0.0234375

     Dense  grid:     5985 G-vectors     FFT dimensions: (  32,  32,  32)

     Smooth grid:     2109 G-vectors     FFT dimensions: (  20,  20,  20)

     Estimated max dynamical RAM per process >      23.39 MB

     Check: negative core charge=   -0.000003

     Initial potential from superposition of free atoms

     starting charge       7.9989, renormalised to       8.0000
     Starting wfcs are    8 randomized atomic wfcs

     total cpu time spent up to now is        0.2 secs

     Self-consistent Calculation

     iteration #  1     ecut=    15.00 Ry     beta= 0.70
     Davidson diagonalization with overlap
     ethr =  1.00E-02,  avg # of iterations =  2.0

     Threshold (ethr) on eigenvalues was too large:
     Diagonalizing with lowered threshold

     Davidson diagonalization with overlap
     ethr =  6.25E-04,  avg # of iterations =  1.4

     total cpu time spent up to now is        0.2 secs

     total energy              =     -22.83206777 Ry
     estimated scf accuracy    <       0.05376544 Ry

     iteration #  2     ecut=    15.00 Ry     beta= 0.70
     Davidson diagonalization with overlap
     ethr =  6.72E-04,  avg # of iterations =  1.0

     total cpu time spent up to now is        0.3 secs

     total energy              =     -22.83395756 Ry
     estimated scf accuracy    <       0.00272155 Ry

     iteration #  3     ecut=    15.00 Ry     beta= 0.70
     Davidson diagonalization with overlap
     ethr =  3.40E-05,  avg # of iterations =  2.6

     total cpu time spent up to now is        0.3 secs

     total energy              =     -22.83462831 Ry
     estimated scf accuracy    <       0.00009141 Ry

     iteration #  4     ecut=    15.00 Ry     beta= 0.70
     Davidson diagonalization with overlap
     ethr =  1.14E-06,  avg # of iterations =  3.8

     total cpu time spent up to now is        0.4 secs

     total energy              =     -22.83469023 Ry
     estimated scf accuracy    <       0.00000546 Ry

     iteration #  5     ecut=    15.00 Ry     beta= 0.70
     Davidson diagonalization with overlap
     ethr =  6.83E-08,  avg # of iterations =  4.4

     total cpu time spent up to now is        0.4 secs

     End of self-consistent calculation

          k = 0.0000 0.0000 0.0000 (   283 PWs)   bands (ev):

    -5.7500   6.2303   6.2303   6.2303

          k =-0.0884 0.0884 0.0884 (   271 PWs)   bands (ev):

    -5.5455   4.6247   5.9400   5.9400

          k =-0.1768 0.1768 0.1768 (   274 PWs)   bands (ev):

    -4.9502   2.2877   5.4640   5.4640

          k =-0.2652 0.2652 0.2652 (   269 PWs)   bands (ev):

    -4.0557   0.2638   5.1324   5.1324

          k = 0.3536-0.3536-0.3536 (   266 PWs)   bands (ev):

    -3.4162  -0.7610   5.0196   5.0196

          k = 0.0000 0.0000 0.1768 (   267 PWs)   bands (ev):

    -5.4767   4.8931   5.4187   5.4187

          k =-0.0884 0.0884 0.2652 (   274 PWs)   bands (ev):

    -5.0083   2.9929   4.9019   4.9798

          k =-0.1768 0.1768 0.3536 (   267 PWs)   bands (ev):

    -4.1929   0.9281   4.3848   4.6309

          k = 0.4419-0.4419-0.2652 (   259 PWs)   bands (ev):

    -3.3301  -0.5385   3.9375   4.6553

          k = 0.3536-0.3536-0.1768 (   259 PWs)   bands (ev):

    -3.5752  -0.1670   3.7552   4.9535

          k = 0.2652-0.2652-0.0884 (   267 PWs)   bands (ev):

    -4.4995   1.5887   3.9067   5.4489

          k = 0.1768-0.1768 0.0000 (   273 PWs)   bands (ev):

    -5.2095   3.5351   4.5911   5.9349

          k = 0.0000 0.0000 0.3536 (   258 PWs)   bands (ev):

    -4.6678   2.7024   4.3280   4.3280

          k =-0.0884 0.0884 0.4419 (   265 PWs)   bands (ev):

    -3.9579   1.2742   3.5444   4.0070

          k = 0.5303-0.5303-0.1768 (   262 PWs)   bands (ev):

    -3.0308  -0.1707   2.6791   4.0100

          k = 0.4419-0.4419-0.0884 (   263 PWs)   bands (ev):

    -2.8262  -0.4295   2.2189   4.3301

          k = 0.3536-0.3536 0.0000 (   264 PWs)   bands (ev):

    -3.7055   0.7337   2.4595   4.8913

          k = 0.0000-0.0000 0.5303 (   258 PWs)   bands (ev):

    -3.3556   0.4693   3.6061   3.6061

          k = 0.6187-0.6187-0.0884 (   263 PWs)   bands (ev):

    -2.4577  -0.6174   2.7757   3.5292

          k = 0.5303-0.5303 0.0000 (   264 PWs)   bands (ev):

    -2.0177  -1.0146   1.9081   3.7883

          k = 0.0000 0.0000-0.7071 (   254 PWs)   bands (ev):

    -1.6047  -1.6047   3.3591   3.3591

          k = 0.0000 0.1768 0.3536 (   272 PWs)   bands (ev):

    -4.4205   1.9261   3.5017   4.7912

          k = 0.6187-0.4419-0.2652 (   264 PWs)   bands (ev):

    -3.5315   0.3712   2.8927   4.2878

          k = 0.5303-0.3536-0.1768 (   264 PWs)   bands (ev):

    -2.8781  -0.5759   2.7639   4.0570

          k = 0.7071-0.5303-0.1768 (   260 PWs)   bands (ev):

    -3.1564   0.2498   2.8503   3.4551

          k = 0.6187-0.4419-0.0884 (   263 PWs)   bands (ev):

    -2.2807  -0.7195   2.1507   3.2532

          k = 0.5303-0.3536 0.0000 (   265 PWs)   bands (ev):

    -2.6315  -0.3560   1.9832   3.6309

          k =-0.0000 0.1768-0.7071 (   262 PWs)   bands (ev):

    -1.5265  -1.5265   2.7949   2.7949

          k = 0.0000 0.3536-0.7071 (   264 PWs)   bands (ev):

    -1.4401  -1.4401   2.3586   2.3586

     highest occupied level (ev):     6.2303

!    total energy              =     -22.83469415 Ry
     estimated scf accuracy    <       0.00000030 Ry

     The total energy is the sum of the following terms:
     one-electron contribution =       5.17457716 Ry
     hartree contribution      =       1.09977406 Ry
     xc contribution           =     -12.31010160 Ry
     ewald contribution        =     -16.79894377 Ry

     convergence has been achieved in   5 iterations

     Writing all to output data dir ./tmp/system.save/ :
     XML data file, charge density, pseudopotentials, collected wavefunctions

     init_run     :      0.13s CPU      0.13s WALL (       1 calls)
     electrons    :      0.24s CPU      0.25s WALL (       1 calls)

     Called by init_run:
     wfcinit      :      0.02s CPU      0.02s WALL (       1 calls)
     potinit      :      0.01s CPU      0.01s WALL (       1 calls)
     hinit0       :      0.09s CPU      0.09s WALL (       1 calls)

     Called by electrons:
     c_bands      :      0.15s CPU      0.15s WALL (       6 calls)
     sum_band     :      0.05s CPU      0.05s WALL (       6 calls)
     v_of_rho     :      0.02s CPU      0.02s WALL (       6 calls)
     newd         :      0.03s CPU      0.03s WALL (       6 calls)
     mix_rho      :      0.00s CPU      0.00s WALL (       6 calls)

     Called by c_bands:
     init_us_2    :      0.01s CPU      0.01s WALL (     377 calls)
     cegterg      :      0.12s CPU      0.12s WALL (     174 calls)

     Called by *egterg:
     cdiaghg      :      0.01s CPU      0.01s WALL (     585 calls)
     h_psi        :      0.09s CPU      0.10s WALL (     643 calls)
     s_psi        :      0.01s CPU      0.01s WALL (     643 calls)
     g_psi        :      0.00s CPU      0.00s WALL (     440 calls)

     Called by h_psi:
     h_psi:calbec :      0.01s CPU      0.01s WALL (     643 calls)
     vloc_psi     :      0.07s CPU      0.08s WALL (     643 calls)
                                        0.00s GPU  (     643 calls)
     add_vuspsi   :      0.01s CPU      0.01s WALL (     643 calls)

     General routines
     calbec       :      0.01s CPU      0.01s WALL (     817 calls)
     fft          :      0.03s CPU      0.03s WALL (      77 calls)
     ffts         :      0.01s CPU      0.01s WALL (      12 calls)
     fftw         :      0.07s CPU      0.07s WALL (    5276 calls)
     interpolate  :      0.01s CPU      0.01s WALL (       6 calls)

     Parallel routines

     PWSCF        :      0.40s CPU      0.42s WALL


   This run was terminated on:   3:48: 1  26Sep2026            

=------------------------------------------------------------------------------=
   JOB DONE.
=------------------------------------------------------------------------------=
