
     Program PWSCF v.7.5 starts on 26Sep2026 at  3:58:47 
        Git branch: HEAD
        Last git commit: 770a0b2d12928a67048e2f3da8d10d057e52179e
        Last git commit date: Tue Aug 19 09:57:12 2025 +0000
        Last git commit subject: Merge branch 'QE-7.5-RC' into 'master'

     This program is part of the open-source Quantum ESPRESSO suite
     for quantum simulation of materials; please cite
         "P. Giannozzi et al., J. Phys.:Condens. Matter 21 395502 (2009);
         "P. Giannozzi et al., J. Phys.:Condens. Matter 29 465901 (2017);
         "P. Giannozzi et al., J. Chem. Phys. 152 154105 (2020);
          URL http://www.quantum-espresso.org", 
     in publications or presentations arising from this work. More details at
     http://www.quantum-espresso.org/quote

     Parallel version (MPI), running on     1 processors

     MPI processes distributed on     1 nodes
     0 MiB available memory on the printing compute node when the environment starts

     Reading input from pw.in

     Current dimensions of program PWSCF are:
     Max number of different atomic species (ntypx) = 10
     Max number of k-points (npk) =  40000
     Max angular momentum in pseudopotentials (lmaxx) =  4
     Message from routine volume:
     axis vectors are left-handed
     Message from routine setup:
     using ibrav=0 with symmetry is DISCOURAGED, use correct ibrav instead

     Subspace diagonalization in iterative solution of the eigenvalue problem:
     a serial algorithm will be used


     G-vector sticks info
     --------------------
     sticks:   dense  smooth     PW     G-vecs:    dense   smooth      PW
     Sum        1027     511    163                21331     7631    1411

     Using Slab Decomposition



     bravais-lattice index     =            0
     lattice parameter (alat)  =       7.2558  a.u.
     unit-cell volume          =     270.1072 (a.u.)^3
     number of atoms/cell      =            2
     number of atomic types    =            1
     number of electrons       =         8.00
     number of Kohn-Sham states=            4
     kinetic-energy cutoff     =      35.0000  Ry
     charge density cutoff     =     280.0000  Ry
     scf convergence threshold =      1.0E-06
     mixing beta               =       0.7000
     number of iterations used =            8  plain     mixing
     Exchange-correlation= PBE
                           (   1   4   3   4   0   0   0)

     celldm(1)=   7.255773  celldm(2)=   0.000000  celldm(3)=   0.000000
     celldm(4)=   0.000000  celldm(5)=   0.000000  celldm(6)=   0.000000

     crystal axes: (cart. coord. in units of alat)
               a(1) = (   0.707107   0.707107   0.000000 )  
               a(2) = (   0.707107   0.000000   0.707107 )  
               a(3) = (   0.000000   0.707107   0.707107 )  

     reciprocal axes: (cart. coord. in units 2 pi/alat)
               b(1) = (  0.707107  0.707107 -0.707107 )  
               b(2) = (  0.707107 -0.707107  0.707107 )  
               b(3) = ( -0.707107  0.707107  0.707107 )  


     PseudoPot. # 1 for Si read from file:
     ./Si.pbe-n-rrkjus_psl.1.0.0.UPF
     MD5 check sum: 0b0bb1205258b0d07b9f9672cf965d36
     Pseudo is Ultrasoft + core correction, Zval =  4.0
     Generated using "atomic" code by A. Dal Corso  v.5.1
     Using radial grid of 1141 points,  6 beta functions with: 
                l(1) =   0
                l(2) =   0
                l(3) =   1
                l(4) =   1
                l(5) =   2
                l(6) =   2
     Q(r) pseudized with 0 coefficients 


     atomic species   valence    mass     pseudopotential
     Si                4.00    28.08600     Si( 1.00)

     48 Sym. Ops., with inversion, found (24 have fractional translation)



   Cartesian axes

     site n.     atom                  positions (alat units)
         1        Si     tau(   1) = (   0.0000000   0.0000000   0.0000000  )
         2        Si     tau(   2) = (   0.3535534   0.3535534   0.3535534  )

     number of k points=    72
                       cart. coord. in units 2pi/alat
        k(    1) = (   0.0000000   0.0000000   0.0000000), wk =   0.0011574
        k(    2) = (  -0.0589256   0.0589256   0.0589256), wk =   0.0092593
        k(    3) = (  -0.1178511   0.1178511   0.1178511), wk =   0.0092593
        k(    4) = (  -0.1767767   0.1767767   0.1767767), wk =   0.0092593
        k(    5) = (  -0.2357023   0.2357023   0.2357023), wk =   0.0092593
        k(    6) = (  -0.2946278   0.2946278   0.2946278), wk =   0.0092593
        k(    7) = (   0.3535534  -0.3535534  -0.3535534), wk =   0.0046296
        k(    8) = (  -0.0000000   0.0000000   0.1178511), wk =   0.0069444
        k(    9) = (  -0.0589256   0.0589256   0.1767767), wk =   0.0277778
        k(   10) = (  -0.1178511   0.1178511   0.2357023), wk =   0.0277778
        k(   11) = (  -0.1767767   0.1767767   0.2946278), wk =   0.0277778
        k(   12) = (  -0.2357023   0.2357023   0.3535534), wk =   0.0277778
        k(   13) = (   0.4124790  -0.4124790  -0.2946278), wk =   0.0277778
        k(   14) = (   0.3535534  -0.3535534  -0.2357023), wk =   0.0277778
        k(   15) = (   0.2946278  -0.2946278  -0.1767767), wk =   0.0277778
        k(   16) = (   0.2357023  -0.2357023  -0.1178511), wk =   0.0277778
        k(   17) = (   0.1767767  -0.1767767  -0.0589256), wk =   0.0277778
        k(   18) = (   0.1178511  -0.1178511  -0.0000000), wk =   0.0138889
        k(   19) = (  -0.0000000   0.0000000   0.2357023), wk =   0.0069444
        k(   20) = (  -0.0589256   0.0589256   0.2946278), wk =   0.0277778
        k(   21) = (  -0.1178511   0.1178511   0.3535534), wk =   0.0277778
        k(   22) = (  -0.1767767   0.1767767   0.4124790), wk =   0.0277778
        k(   23) = (   0.4714045  -0.4714045  -0.2357023), wk =   0.0277778
        k(   24) = (   0.4124790  -0.4124790  -0.1767767), wk =   0.0277778
        k(   25) = (   0.3535534  -0.3535534  -0.1178511), wk =   0.0277778
        k(   26) = (   0.2946278  -0.2946278  -0.0589256), wk =   0.0277778
        k(   27) = (   0.2357023  -0.2357023   0.0000000), wk =   0.0138889
        k(   28) = (   0.0000000   0.0000000   0.3535534), wk =   0.0069444
        k(   29) = (  -0.0589256   0.0589256   0.4124790), wk =   0.0277778
        k(   30) = (  -0.1178511   0.1178511   0.4714045), wk =   0.0277778
        k(   31) = (   0.5303301  -0.5303301  -0.1767767), wk =   0.0277778
        k(   32) = (   0.4714045  -0.4714045  -0.1178511), wk =   0.0277778
        k(   33) = (   0.4124790  -0.4124790  -0.0589256), wk =   0.0277778
        k(   34) = (   0.3535534  -0.3535534   0.0000000), wk =   0.0138889
        k(   35) = (  -0.0000000   0.0000000   0.4714045), wk =   0.0069444
        k(   36) = (  -0.0589256   0.0589256   0.5303301), wk =   0.0277778
        k(   37) = (   0.5892557  -0.5892557  -0.1178511), wk =   0.0277778
        k(   38) = (   0.5303301  -0.5303301  -0.0589256), wk =   0.0277778
        k(   39) = (   0.4714045  -0.4714045  -0.0000000), wk =   0.0138889
        k(   40) = (  -0.0000000   0.0000000   0.5892557), wk =   0.0069444
        k(   41) = (   0.6481812  -0.6481812  -0.0589256), wk =   0.0277778
        k(   42) = (   0.5892557  -0.5892557   0.0000000), wk =   0.0138889
        k(   43) = (   0.0000000   0.0000000  -0.7071068), wk =   0.0034722
        k(   44) = (   0.0000000   0.1178511   0.2357023), wk =   0.0277778
        k(   45) = (  -0.0589256   0.1767767   0.2946278), wk =   0.0555556
        k(   46) = (  -0.1178511   0.2357023   0.3535534), wk =   0.0555556
        k(   47) = (   0.5303301  -0.4124790  -0.2946278), wk =   0.0555556
        k(   48) = (   0.4714045  -0.3535534  -0.2357023), wk =   0.0277778
        k(   49) = (   0.0000000   0.1178511   0.3535534), wk =   0.0277778
        k(   50) = (  -0.0589256   0.1767767   0.4124790), wk =   0.0555556
        k(   51) = (   0.5892557  -0.4714045  -0.2357023), wk =   0.0555556
        k(   52) = (   0.5303301  -0.4124790  -0.1767767), wk =   0.0555556
        k(   53) = (   0.4714045  -0.3535534  -0.1178511), wk =   0.0555556
        k(   54) = (   0.4124790  -0.2946278  -0.0589256), wk =   0.0555556
        k(   55) = (   0.3535534  -0.2357023   0.0000000), wk =   0.0277778
        k(   56) = (  -0.0000000   0.1178511   0.4714045), wk =   0.0277778
        k(   57) = (   0.6481812  -0.5303301  -0.1767767), wk =   0.0555556
        k(   58) = (   0.5892557  -0.4714045  -0.1178511), wk =   0.0555556
        k(   59) = (   0.5303301  -0.4124790  -0.0589256), wk =   0.0555556
        k(   60) = (   0.4714045  -0.3535534  -0.0000000), wk =   0.0277778
        k(   61) = (   0.7071068  -0.5892557  -0.1178511), wk =   0.0277778
        k(   62) = (   0.6481812  -0.5303301  -0.0589256), wk =   0.0555556
        k(   63) = (   0.5892557  -0.4714045  -0.0000000), wk =   0.0277778
        k(   64) = (  -0.0000000   0.1178511  -0.7071068), wk =   0.0138889
        k(   65) = (   0.7071068  -0.4714045  -0.2357023), wk =   0.0277778
        k(   66) = (   0.6481812  -0.4124790  -0.1767767), wk =   0.0555556
        k(   67) = (   0.5892557  -0.3535534  -0.1178511), wk =   0.0277778
        k(   68) = (   0.7071068  -0.4714045  -0.1178511), wk =   0.0277778
        k(   69) = (   0.6481812  -0.4124790  -0.0589256), wk =   0.0555556
        k(   70) = (   0.5892557  -0.3535534   0.0000000), wk =   0.0277778
        k(   71) = (   0.0000000   0.2357023  -0.7071068), wk =   0.0138889
        k(   72) = (   0.0000000   0.3535534  -0.7071068), wk =   0.0069444

     Dense  grid:    21331 G-vectors     FFT dimensions: (  40,  40,  40)

     Smooth grid:     7631 G-vectors     FFT dimensions: (  32,  32,  32)

     Estimated max dynamical RAM per process >      80.42 MB

     Initial potential from superposition of free atoms

     starting charge       7.9989, renormalised to       8.0000
     Starting wfcs are    8 randomized atomic wfcs

     total cpu time spent up to now is        0.4 secs

     Self-consistent Calculation

     iteration #  1     ecut=    35.00 Ry     beta= 0.70
     Davidson diagonalization with overlap
     ethr =  1.00E-02,  avg # of iterations =  2.0

     Threshold (ethr) on eigenvalues was too large:
     Diagonalizing with lowered threshold

     Davidson diagonalization with overlap
     ethr =  6.21E-04,  avg # of iterations =  1.5

     total cpu time spent up to now is        1.0 secs

     total energy              =     -22.83699768 Ry
     estimated scf accuracy    <       0.05383652 Ry

     iteration #  2     ecut=    35.00 Ry     beta= 0.70
     Davidson diagonalization with overlap
     ethr =  6.73E-04,  avg # of iterations =  1.0

     total cpu time spent up to now is        1.3 secs

     total energy              =     -22.83881112 Ry
     estimated scf accuracy    <       0.00282730 Ry

     iteration #  3     ecut=    35.00 Ry     beta= 0.70
     Davidson diagonalization with overlap
     ethr =  3.53E-05,  avg # of iterations =  2.7

     total cpu time spent up to now is        1.7 secs

     total energy              =     -22.83958288 Ry
     estimated scf accuracy    <       0.00010544 Ry

     iteration #  4     ecut=    35.00 Ry     beta= 0.70
     Davidson diagonalization with overlap
     ethr =  1.32E-06,  avg # of iterations =  3.9

     total cpu time spent up to now is        2.2 secs

     total energy              =     -22.83965370 Ry
     estimated scf accuracy    <       0.00001342 Ry

     iteration #  5     ecut=    35.00 Ry     beta= 0.70
     Davidson diagonalization with overlap
     ethr =  1.68E-07,  avg # of iterations =  3.4

     total cpu time spent up to now is        2.6 secs

     End of self-consistent calculation

          k = 0.0000 0.0000 0.0000 (   941 PWs)   bands (ev):

    -5.7565   6.2083   6.2083   6.2083

          k =-0.0589 0.0589 0.0589 (   941 PWs)   bands (ev):

    -5.6654   5.3489   6.0644   6.0644

          k =-0.1179 0.1179 0.1179 (   923 PWs)   bands (ev):

    -5.3952   3.8259   5.7573   5.7573

          k =-0.1768 0.1768 0.1768 (   941 PWs)   bands (ev):

    -4.9567   2.2790   5.4475   5.4475

          k =-0.2357 0.2357 0.2357 (   938 PWs)   bands (ev):

    -4.3795   0.8712   5.2066   5.2066

          k =-0.2946 0.2946 0.2946 (   941 PWs)   bands (ev):

    -3.7588  -0.2592   5.0580   5.0580

          k = 0.3536-0.3536-0.3536 (   960 PWs)   bands (ev):

    -3.4246  -0.7650   5.0082   5.0082

          k =-0.0000 0.0000 0.1179 (   933 PWs)   bands (ev):

    -5.6350   5.5143   5.7776   5.7776

          k =-0.0589 0.0589 0.1768 (   932 PWs)   bands (ev):

    -5.4240   4.2796   5.4133   5.6044

          k =-0.1179 0.1179 0.2357 (   941 PWs)   bands (ev):

    -5.0400   2.7768   5.0998   5.2807

          k =-0.1768 0.1768 0.2946 (   940 PWs)   bands (ev):

    -4.5039   1.3396   4.8897   4.9272

          k =-0.2357 0.2357 0.3536 (   941 PWs)   bands (ev):

    -3.8782   0.1087   4.6307   4.7999

          k = 0.4125-0.4125-0.2946 (   942 PWs)   bands (ev):

    -3.3872  -0.6617   4.4254   4.8308

          k = 0.3536-0.3536-0.2357 (   944 PWs)   bands (ev):

    -3.5081  -0.4838   4.3299   4.9741

          k = 0.2946-0.2946-0.1768 (   938 PWs)   bands (ev):

    -4.0902   0.4891   4.3571   5.2139

          k = 0.2357-0.2357-0.1179 (   944 PWs)   bands (ev):

    -4.6983   1.8043   4.5168   5.5244

          k = 0.1768-0.1768-0.0589 (   931 PWs)   bands (ev):

    -5.1871   3.2639   4.8210   5.8543

          k = 0.1179-0.1179-0.0000 (   933 PWs)   bands (ev):

    -5.5145   4.6179   5.3436   6.0901

          k =-0.0000 0.0000 0.2357 (   941 PWs)   bands (ev):

    -5.2723   4.1694   5.0139   5.0139

          k =-0.0589 0.0589 0.2946 (   944 PWs)   bands (ev):

    -4.9451   3.0813   4.6666   4.6792

          k =-0.1179 0.1179 0.3536 (   942 PWs)   bands (ev):

    -4.4569   1.7698   4.2139   4.4604

          k =-0.1768 0.1768 0.4125 (   944 PWs)   bands (ev):

    -3.8490   0.5343   3.7744   4.3764

          k = 0.4714-0.4714-0.2357 (   942 PWs)   bands (ev):

    -3.2652  -0.4005   3.4296   4.4302

          k = 0.4125-0.4125-0.1768 (   941 PWs)   bands (ev):

    -3.1507  -0.5605   3.2154   4.6143

          k = 0.3536-0.3536-0.1179 (   945 PWs)   bands (ev):

    -3.6503   0.1990   3.1587   4.9096

          k = 0.2946-0.2946-0.0589 (   942 PWs)   bands (ev):

    -4.2749   1.3466   3.3031   5.2781

          k = 0.2357-0.2357 0.0000 (   935 PWs)   bands (ev):

    -4.8069   2.4892   3.7938   5.6426

          k = 0.0000 0.0000 0.3536 (   950 PWs)   bands (ev):

    -4.6744   2.6898   4.3165   4.3165

          k =-0.0589 0.0589 0.4125 (   945 PWs)   bands (ev):

    -4.2378   1.7792   3.8509   4.0698

          k =-0.1179 0.1179 0.4714 (   946 PWs)   bands (ev):

    -3.6623   0.7496   3.2185   3.9626

          k = 0.5303-0.5303-0.1768 (   948 PWs)   bands (ev):

    -3.0380  -0.1772   2.6717   4.0012

          k = 0.4714-0.4714-0.1179 (   948 PWs)   bands (ev):

    -2.7140  -0.5921   2.3085   4.1814

          k = 0.4125-0.4125-0.0589 (   948 PWs)   bands (ev):

    -3.0901  -0.0978   2.1889   4.4864

          k = 0.3536-0.3536 0.0000 (   931 PWs)   bands (ev):

    -3.7124   0.7256   2.4530   4.8790

          k =-0.0000 0.0000 0.4714 (   950 PWs)   bands (ev):

    -3.8520   1.1953   3.7884   3.7884

          k =-0.0589 0.0589 0.5303 (   950 PWs)   bands (ev):

    -3.3172   0.4091   3.3023   3.6457

          k = 0.5893-0.5893-0.1179 (   946 PWs)   bands (ev):

    -2.6879  -0.3598   2.5737   3.6519

          k = 0.5303-0.5303-0.0589 (   947 PWs)   bands (ev):

    -2.2187  -0.8512   1.9946   3.8057

          k = 0.4714-0.4714-0.0000 (   955 PWs)   bands (ev):

    -2.4917  -0.5650   1.7926   4.0945

          k =-0.0000 0.0000 0.5893 (   950 PWs)   bands (ev):

    -2.8224  -0.2563   3.4632   3.4632

          k = 0.6482-0.6482-0.0589 (   954 PWs)   bands (ev):

    -2.2086  -0.9445   3.0312   3.4295

          k = 0.5893-0.5893 0.0000 (   954 PWs)   bands (ev):

    -1.7525  -1.3488   2.3600   3.5466

          k = 0.0000 0.0000-0.7071 (   950 PWs)   bands (ev):

    -1.6115  -1.6115   3.3536   3.3536

          k = 0.0000 0.1179 0.2357 (   936 PWs)   bands (ev):

    -5.1552   3.4799   4.5727   5.5013

          k =-0.0589 0.1768 0.2946 (   942 PWs)   bands (ev):

    -4.7188   2.2378   4.0402   5.2258

          k =-0.1179 0.2357 0.3536 (   941 PWs)   bands (ev):

    -4.1434   0.9352   3.7709   4.8980

          k = 0.5303-0.4125-0.2946 (   941 PWs)   bands (ev):

    -3.5214  -0.1554   3.6437   4.6510

          k = 0.4714-0.3536-0.2357 (   944 PWs)   bands (ev):

    -3.1828  -0.6541   3.6082   4.5592

          k = 0.0000 0.1179 0.3536 (   948 PWs)   bands (ev):

    -4.5639   2.2864   3.8766   4.5800

          k =-0.0589 0.1768 0.4125 (   946 PWs)   bands (ev):

    -4.0312   1.2353   3.3392   4.2910

          k = 0.5893-0.4714-0.2357 (   945 PWs)   bands (ev):

    -3.4055   0.1799   2.9827   4.0800

          k = 0.5303-0.4125-0.1768 (   950 PWs)   bands (ev):

    -2.9083  -0.5272   2.7369   4.0618

          k = 0.4714-0.3536-0.1179 (   945 PWs)   bands (ev):

    -3.0442  -0.3398   2.6184   4.2347

          k = 0.4125-0.2946-0.0589 (   942 PWs)   bands (ev):

    -3.6347   0.5381   2.6922   4.5521

          k = 0.3536-0.2357 0.0000 (   941 PWs)   bands (ev):

    -4.2375   1.5181   3.1073   4.9344

          k =-0.0000 0.1179 0.4714 (   945 PWs)   bands (ev):

    -3.7534   1.0199   3.3666   3.7946

          k = 0.6482-0.5303-0.1768 (   947 PWs)   bands (ev):

    -3.1475   0.1840   2.7784   3.5773

          k = 0.5893-0.4714-0.1179 (   946 PWs)   bands (ev):

    -2.5578  -0.5313   2.2570   3.5853

          k = 0.5303-0.4125-0.0589 (   946 PWs)   bands (ev):

    -2.4867  -0.6024   1.9680   3.7841

          k = 0.4714-0.3536-0.0000 (   939 PWs)   bands (ev):

    -3.0247  -0.0115   2.0548   4.1296

          k = 0.7071-0.5893-0.1179 (   948 PWs)   bands (ev):

    -2.7450  -0.2928   3.0826   3.2791

          k = 0.6482-0.5303-0.0589 (   947 PWs)   bands (ev):

    -2.1156  -0.9360   2.4534   3.2352

          k = 0.5893-0.4714-0.0000 (   946 PWs)   bands (ev):

    -1.9607  -1.0497   1.9550   3.4325

          k =-0.0000 0.1179-0.7071 (   958 PWs)   bands (ev):

    -1.5733  -1.5733   3.0471   3.0471

          k = 0.7071-0.4714-0.2357 (   937 PWs)   bands (ev):

    -3.4668   0.5620   2.6363   3.9115

          k = 0.6482-0.4125-0.1768 (   940 PWs)   bands (ev):

    -2.8424  -0.2083   2.2891   3.5741

          k = 0.5893-0.3536-0.1179 (   942 PWs)   bands (ev):

    -2.4817  -0.6380   2.1961   3.4445

          k = 0.7071-0.4714-0.1179 (   942 PWs)   bands (ev):

    -2.5309  -0.4370   2.4373   3.0562

          k = 0.6482-0.4125-0.0589 (   943 PWs)   bands (ev):

    -2.0074  -0.9438   2.1215   2.9019

          k = 0.5893-0.3536 0.0000 (   944 PWs)   bands (ev):

    -2.2390  -0.7139   1.9966   3.1272

          k = 0.0000 0.2357-0.7071 (   946 PWs)   bands (ev):

    -1.4915  -1.4915   2.5609   2.5609

          k = 0.0000 0.3536-0.7071 (   952 PWs)   bands (ev):

    -1.4474  -1.4474   2.3529   2.3529

     highest occupied level (ev):     6.2083

!    total energy              =     -22.83965912 Ry
     estimated scf accuracy    <       0.00000036 Ry

     The total energy is the sum of the following terms:
     one-electron contribution =       5.16841945 Ry
     hartree contribution      =       1.10011515 Ry
     xc contribution           =     -12.30924998 Ry
     ewald contribution        =     -16.79894373 Ry

     convergence has been achieved in   5 iterations

     Writing all to output data dir ./tmp/system.save/ :
     XML data file, charge density, pseudopotentials, collected wavefunctions

     init_run     :      0.34s CPU      0.36s WALL (       1 calls)
     electrons    :      2.17s CPU      2.22s WALL (       1 calls)

     Called by init_run:
     wfcinit      :      0.15s CPU      0.16s WALL (       1 calls)
     potinit      :      0.04s CPU      0.04s WALL (       1 calls)
     hinit0       :      0.12s CPU      0.13s WALL (       1 calls)

     Called by electrons:
     c_bands      :      1.68s CPU      1.72s WALL (       6 calls)
     sum_band     :      0.35s CPU      0.36s WALL (       6 calls)
     v_of_rho     :      0.05s CPU      0.05s WALL (       6 calls)
     newd         :      0.10s CPU      0.11s WALL (       6 calls)
     mix_rho      :      0.00s CPU      0.00s WALL (       6 calls)

     Called by c_bands:
     init_us_2    :      0.08s CPU      0.08s WALL (     936 calls)
     cegterg      :      1.44s CPU      1.47s WALL (     432 calls)

     Called by *egterg:
     cdiaghg      :      0.02s CPU      0.02s WALL (    1407 calls)
     h_psi        :      1.36s CPU      1.38s WALL (    1551 calls)
     s_psi        :      0.06s CPU      0.06s WALL (    1551 calls)
     g_psi        :      0.00s CPU      0.00s WALL (    1047 calls)

     Called by h_psi:
     h_psi:calbec :      0.10s CPU      0.10s WALL (    1551 calls)
     vloc_psi     :      1.19s CPU      1.21s WALL (    1551 calls)
                                        0.00s GPU  (    1551 calls)
     add_vuspsi   :      0.07s CPU      0.07s WALL (    1551 calls)

     General routines
     calbec       :      0.13s CPU      0.13s WALL (    1983 calls)
     fft          :      0.04s CPU      0.04s WALL (      77 calls)
     ffts         :      0.02s CPU      0.03s WALL (      12 calls)
     fftw         :      1.21s CPU      1.23s WALL (   12858 calls)
     interpolate  :      0.03s CPU      0.03s WALL (       6 calls)

     Parallel routines

     PWSCF        :      2.54s CPU      2.62s WALL


   This run was terminated on:   3:58:50  26Sep2026            

=------------------------------------------------------------------------------=
   JOB DONE.
=------------------------------------------------------------------------------=
